285
CdTe_PPh3 final optimized structure with all atoms
 Cd        12.9897104980       14.3446126390       11.6047806386
 Cd        12.8490552986       11.3549570672       14.8305617607
 Cd        10.6302678333       15.1894085349       15.3100313370
 Cd        16.7776744129       16.7793923793       10.7613253806
 Cd        16.7189728930       13.6263567591       14.0417930895
 Cd        14.2984269045       17.6423161549       14.4544188111
 Cd        16.5576139375       10.6041176156       17.3614966389
 Cd        14.2041112743       14.4101938527       17.9324172402
 Cd        11.9316367280       18.3675388059       18.2744900414
 Cd        20.4490445066       16.0556730694       13.3354911149
 Cd        18.1020587651       20.0994010013       13.8253574600
 Cd        20.3793775856       13.0087365739       16.7144265238
 Cd        18.1246723708       16.9481818949       17.1279028989
 Cd        15.7263972280       20.7836185573       17.3802386799
 Cd        17.8910743711       13.8292100833       20.4290320653
 Cd        15.4739100620       17.7425993319       20.7805229493
 Cd        12.2827611130       11.3390142190        8.8148552011
 Cd         9.7374107580       15.5500265274        9.3065363510
 Cd        12.1864020763        8.4155529714       11.9987159812
 Cd         8.7598849317       11.8395955864       12.1202649306
 Cd         7.4148471195       16.3133979296       12.8715227948
 Cd         9.5441613274        9.2330772711       16.0929640565
 Cd         7.3163109860       12.9305106123       16.5140590375
 Cd        15.5560529460       13.4078109168        7.8921233706
 Cd        12.9700984725       17.6435615692        8.3776735474
 Cd        15.5576160334       10.1838736766       10.7910984274
 Cd        10.4496640660       18.6617117572       11.7563100590
 Cd        15.3951088068        7.5054669658       14.2231434015
 Cd         8.3099953509       19.1635796623       15.5070797315
 Cd        12.7229805934        8.3593072934       18.3475861809
 Cd        10.2227471272       11.8777993316       19.0235510436
 Cd         8.2198755275       15.7511885529       19.1688826404
 Cd        18.9591315101       15.3814836388        7.5123684653
 Cd        16.2844895592       19.7394812804        7.9719327581
 Cd        19.2143900102       12.4831135724       10.1630926280
 Cd        14.1192449131       20.9184145046       11.0852061090
 Cd        19.0696005437        9.5395112103       13.3261821216
 Cd        11.7606743072       21.7045329809       14.6666728254
 Cd         9.7086003263       21.8179778266       18.1162818513
 Cd        16.0348691525        8.1359792740       20.6287227754
 Cd        13.7512730115       11.2639541964       21.4597082286
 Cd        11.5329486160       14.9898550172       21.8954123510
 Cd         9.6349473611       18.4495863499       21.7276938516
 Cd        20.3410756200       18.8450414125       10.4041518610
 Cd        17.6477915634       22.6743333614       10.7445914412
 Cd        22.5999764299       12.1024570134       12.8165934860
 Cd        22.2004227478        9.4475641351       15.7126707479
 Cd        13.2848564378       24.0592907132       17.5262022886
 Cd        19.9308259779       10.2834368665       19.7543840856
 Cd        13.0728126296       21.8018215021       21.6461592417
 Cd        17.1119513722       11.1186743620       23.5143458814
 Cd        15.2098531487       14.5467583935       24.0528824962
 Cd        23.8541853915       18.3526864774       13.1717090991
 Cd        21.7652027995       22.0469757624       13.7250286700
 Cd        24.1107616014       15.6324652863       16.0577240322
 Cd        22.0965488776       19.4374851787       16.6182654565
 Cd        19.4135481537       22.9407913053       16.7982242379
 Cd        23.7529862619       13.0832779962       19.0552198713
 Cd        22.0399732125       16.5516228411       19.8248413967
 Cd        19.7377374493       20.2482286254       20.1923091903
 Cd        17.3525514163       23.4481999551       20.1546276312
 Cd        21.3905177002       13.8251812353       22.5758027977
 Cd        19.3464939229       17.1918915315       23.2220835236
 Cd        17.1311996765       20.5349188259       23.2790316076
 Cl        12.3380476590       23.7294676875       22.8722625716
 Cl        17.6807481788       24.6290676307       12.2714681586
 Cl        11.0305920972       16.2679285161        7.2501710859
 Cl        16.9277586066       12.8498304647       25.2833146054
 Cl         6.7741506477       10.9286745222       11.1539958649
 Cl        25.3896414567       13.5991982100       17.2304411787
 Cl         7.4366635139       17.7734238127       20.6825451485
 Cl        18.5528171787       24.8539944484       18.4474778905
 Cl        14.3957599914        6.5777161336       19.4869860041
 Cl        18.2872209216       18.9221290978       24.9112681678
 Cl        14.9304188554       25.5146737828       16.2821185287
 Cl        13.3381762781       12.4680804309        6.8134951657
 Cl        10.7576705684        7.2049217052       16.9959489826
 Cl         6.1643498561       14.7361311259       17.8386162139
 Cl        20.5566968712       15.1685425411       24.5106758024
 Cl        24.0552233929       10.4952530265       14.3907951391
 Cl        16.6205012518        5.7488993919       15.7522944471
 Cl        24.2384590708       13.3326326164       11.1914233802
 Cl        20.9052963821       24.0936033168       14.8177696414
 Cl         6.2498925339       17.8322572516       14.5128717133
 Cl        13.1386536020        6.4659521861       13.2910890468
 Cl        14.6850114041       18.5171653395        6.4997463778
 Cl        16.9720574166       14.8063718901        6.1015665741
 Cl        25.4821501703       16.5658578895       13.9779501203
 Cl        14.6063925782       16.3878358868       25.7655451389
 Cl         7.5026606896       20.8324513788       17.4015454390
 Te        14.5572137776       12.2562599503       12.7326662007
 Te        12.0003881949       16.4993471751       13.1775552502
 Te        11.8835669985       13.1245151971       16.8292851740
 Te        18.3693193547       14.7245089000       11.9392922703
 Te        15.8945483045       18.9353357868       12.4002677323
 Te        18.3090957242       11.5952311747       15.3523637480
 Te        15.8503270007       15.6538820932       15.8920915545
 Te        13.3550241045       19.7130590348       16.1971230747
 Te        15.6540637457       12.3826025455       19.4135172299
 Te        13.2141966007       16.3358804557       19.8094933099
 Te        19.8222794695       18.2007596395       15.1320871863
 Te        19.7419021779       15.0367158093       18.6093244762
 Te        17.3132613608       18.9953026856       18.9642795641
 Te        13.2483570504        8.8518328988        9.4923797256
 Te        10.6727177610       13.0964012124       10.3031202167
 Te         8.0839011014       17.4306932578       10.4426530449
 Te        10.5416286550       10.0448863042       13.5889762666
 Te         8.2894787427       13.9284284486       14.0705382630
 Te         7.8542835742       10.5587123190       17.8105920319
 Te        17.1187946387       11.2636756724        8.6832934696
 Te        14.5470656520       15.5428786391        9.4947188696
 Te        11.9183651367       19.8720478238        9.6368595530
 Te        17.0063024536        8.0901960817       12.0526456071
 Te         9.4078825164       20.6736147912       13.4531202595
 Te        14.3340124499        9.2879448405       16.1869157667
 Te         9.6042002446       17.1675034608       17.0970339026
 Te        11.5756622153        9.7919614751       20.4166141419
 Te         9.1844670076       13.7695620118       20.8497328943
 Te        20.9173468038       13.5450261230        7.9799578847
 Te        18.4430056200       17.9814024766        8.5449552062
 Te        15.7119225448       22.2534994641        8.8757931590
 Te        20.8717468752       10.5228021225       11.3567442855
 Te        13.2279663010       23.1013268690       12.6560216780
 Te        20.7003538100        7.4441939407       14.6450943776
 Te        10.7476368579       23.8060950483       16.5086402647
 Te        18.1032018342        8.4543201972       18.7472358931
 Te        10.9683642153       20.3826442727       20.1742177741
 Te        15.2668399420        9.1650743977       23.0411002161
 Te        12.9435771671       13.0747974867       23.4624029868
 Te        10.5385056216       16.9435766135       23.8360824720
 Te        22.3038993888       17.0622401706       11.2135537680
 Te        19.9194532719       21.2685544479       11.6866076543
 Te        22.0647081256       14.1609024066       14.7216993025
 Te        17.0907790528       22.2673263278       15.3516259578
 Te        22.0946977213       10.9686707874       18.1227902786
 Te        14.7663538466       22.6590584975       19.4265878978
 Te        19.4658425239       11.8107110111       22.0372215906
 Te        17.0350132158       15.8224725639       22.2681288483
 Te        14.5296710793       19.6219375968       22.8159340218
 Te        23.9717822153       20.6857995539       14.5915590735
 Te        23.8573275062       17.6433780996       17.9385032629
 Te        21.3501239628       21.5980324007       18.2774261771
 Te        23.7204711823       14.5697465610       21.3476211148
 Te        21.3222437689       18.4759431694       21.7622510903
 Te        18.8919598152       22.3213370121       22.1473138161
  P        19.7878803798        4.2789100096       17.5654142605
  C        20.2772089864        3.2101437686       16.1654066708
  C        21.2946455665        4.5431890066       18.5599591443
  C        18.6374730218        3.2842196450       18.5698582200
  C        21.4688623884        2.4655769200       16.1499039818
  C        19.3991486313        3.1395495131       15.0672178663
  C        22.3937799850        5.1771198702       17.9461048810
  C        21.3567394953        4.2310250971       19.9281222185
  C        18.9252504550        1.9450718896       18.8954250996
  C        17.4269029803        3.8569022514       18.9936017237
  C        21.7736642679        1.6571945085       15.0496869470
  C        19.7101436242        2.3277801239       13.9735609405
  C        23.5400894072        5.4715619690       18.6874118338
  C        22.5071221351        4.5341727177       20.6658058204
  C        18.0171054704        1.2008446972       19.6511634490
  C        16.5197449667        3.1058181320       19.7488853355
  C        20.8968668854        1.5869463009       13.9625440600
  C        23.5996984492        5.1496867484       20.0487272377
  C        16.8161342993        1.7809729512       20.0801149374
 Cd        18.9021717102        6.5962705780       16.6067129762
  H        16.1078484636        1.1943670466       20.6628503626
  H        24.4937940010        5.3805376688       20.6250988167
  H        21.1405233010        0.9609841624       13.1058883043
  H        15.5809747796        3.5614169963       20.0600990596
  H        18.2417226658        0.1650727847       19.8982723388
  H        22.5475561493        4.2843462165       21.7243312098
  H        24.3867833682        5.9536923910       18.2018698267
  H        19.0278418451        2.2827590102       13.1267729151
  H        22.6991754733        1.0847317358       15.0428556801
  H        17.1727580886        4.8794143277       18.7148187819
  H        19.8494372544        1.4857227604       18.5490942954
  H        20.5103936313        3.7500236032       20.4140417557
  H        22.3532665614        5.4373684716       16.8880874301
  H        18.4731055112        3.7165958525       15.0652728914
  H        22.1596245778        2.5240727836       16.9882633148
  P        25.0133906448       15.1319127911        7.8241863242
  C        25.3930209433       13.5651696707        6.9581367471
  C        24.6140753843       16.3333485684        6.5092546485
  C        26.5772400663       15.6681358998        8.5937243791
  C        25.7331627238       13.5160431432        5.5948516270
  C        25.3550037148       12.3739576984        7.7067743200
  C        23.5301374244       16.0487806599        5.6543620399
  C        25.2956608553       17.5538874724        6.3727453466
  C        27.7828222050       15.6845552148        7.8666493932
  C        26.5813221984       16.0348802177        9.9494141157
  C        26.0332827571       12.2901960902        4.9921957169
  C        25.6583518394       11.1536004847        7.0971974671
  C        23.1555767380       16.9615569379        4.6658446895
  C        24.9112711785       18.4657031450        5.3827806239
  C        28.9673457007       16.0834877626        8.4890706589
  C        27.7716347449       16.4291952144       10.5698631411
  C        25.9962618749       11.1092809873        5.7406886606
  C        23.8474461692       18.1706384347        4.5258600428
  C        28.9622748699       16.4581430975        9.8389837863
 Cd        22.9407804853       14.7622056084        9.4629212363
  H        29.8898727120       16.7611184129       10.3217979341
  H        23.5560606344       18.8792378131        3.7526091280
  H        26.2247793947       10.1564185480        5.2664106242
  H        27.7598686213       16.6969377870       11.6251672570
  H        29.8972311784       16.0937435713        7.9236866560
  H        25.4502411041       19.4056846301        5.2806688564
  H        22.3234747628       16.7273319178        4.0042302934
  H        25.6209438773       10.2371988621        7.6831349810
  H        26.2923103638       12.2592497214        3.9356893131
  H        25.6628427529       15.9883562136       10.5340096332
  H        27.7950523702       15.3770861705        6.8223867535
  H        26.1279122888       17.7877326903        7.0331652422
  H        22.9832489942       15.1114537825        5.7576136963
  H        25.0918085342       12.3971923126        8.7650107752
  H        25.7527989551       14.4289913209        5.0036331534
  P        15.2633341124       27.1378075257       13.0636733510
  C        13.7569663646       28.0394192258       13.5928263299
  C        16.6720081337       28.0555475869       13.7756025605
  C        15.3220722486       27.4296808643       11.2535063849
  C        13.7095754359       29.4439363094       13.6571262435
  C        12.5962681761       27.2996481368       13.8721851036
  C        16.5835801882       28.5704123616       15.0827775310
  C        17.9035962717       28.1155153731       13.0970794245
  C        15.7114445172       28.6625482667       10.6992059485
  C        14.8923681812       26.4000639777       10.4002725360
  C        12.5197263773       30.0921050997       13.9973698631
  C        11.4051220996       27.9520319235       14.2069873899
  C        17.7009152463       29.1535165769       15.6866507932
  C        19.0163795326       28.7002911414       13.7082338071
  C        15.6764165568       28.8537800358        9.3153321239
  C        14.8516823587       26.5970828041        9.0163262404
  C        11.3659928727       29.3475111671       14.2714420832
  C        18.9181599033       29.2224356220       15.0017221857
  C        15.2468754133       27.8224428287        8.4720582792
 Cd        15.3698908709       24.4966136136       13.8203000201
  H        15.2198315184       27.9749580377        7.3945136515
  H        19.7873322925       29.6740717275       15.4761210379
  H        10.4400921554       29.8555836495       14.5357033318
  H        14.5155192980       25.7900055803        8.3675136455
  H        15.9831268251       29.8098708069        8.8950706718
  H        19.9627876907       28.7401605221       13.1728630059
  H        17.6192183452       29.5473478694       16.6977006937
  H        10.5129891653       27.3661618997       14.4216388863
  H        12.4921515428       31.1790129024       14.0474884215
  H        14.5808791007       25.4423781597       10.8186304851
  H        16.0490684070       29.4690272465       11.3470478185
  H        17.9954660617       27.6975522540       12.0972215004
  H        15.6461182095       28.5061525724       15.6310172190
  H        12.6207050612       26.2108252769       13.8256834358
  H        14.6031453732       30.0296229735       13.4496305267
  P        12.3791369774       19.4099219761       26.9737186838
  C        13.7918462461       19.8683848496       28.0332661994
  C        11.4570105578       20.9400197667       26.6180792208
  C        11.2820807154       18.3928433423       28.0253968424
  C        13.5908639421       20.3630016777       29.3357831085
  C        15.0995213048       19.7005877097       27.5494984673
  C        12.0001343419       22.2117600674       26.8628899335
  C        10.2043158751       20.8328114666       25.9813322329
  C        10.2154420734       18.9410248177       28.7587546113
  C        11.5405366546       17.0119299784       28.1031396061
  C        14.6874059393       20.6956959752       30.1331963020
  C        16.1951670718       20.0358950890       28.3529212477
  C        11.2954500221       23.3590693451       26.4845458289
  C         9.5030006082       21.9839411003       25.6169552061
  C         9.4226380151       18.1162287006       29.5628471870
  C        10.7442017670       16.1945437130       28.9096172621
  C        15.9894980629       20.5346390228       29.6422073720
  C        10.0485038888       23.2484795050       25.8653096382
  C         9.6847107648       16.7444473884       29.6389444391
 Cd        12.9365553862       18.1129089725       24.7220053908
  H         9.0599890071       16.1047859062       30.2598214994
  H         9.5089142842       24.1444261487       25.5646658802
  H        16.8418977490       20.7901751371       30.2694565281
  H        10.9472401011       15.1266101116       28.9597001604
  H         8.5971982906       18.5471678325       30.1260410164
  H         8.5330736465       21.8935367358       25.1313401701
  H        11.7293481698       24.3400717565       26.6664966832
  H        17.2026903644       19.8934359121       27.9658958644
  H        14.5266480875       21.0753401645       31.1404355358
  H        12.3639184037       16.5743694568       27.5366204042
  H         9.9990834456       20.0052741478       28.6910314645
  H         9.7774564841       19.8513930246       25.7748608660
  H        12.9715079838       22.3044377999       27.3434151097
  H        15.2698863387       19.2872553076       26.5553566221
  H        12.5811172823       20.4789667994       29.7258025929
