126
Lattice="16.0371817973109 3.968173383308748 0.0 4.58205194208883 15.872693533234992 0.0 0.0 0.0 31.94644484377913" Properties=species:S:1:pos:R:3:tags:I:1:spacegroup_kinds:I:1:region:S:1:fixed:L:1 pbc="T T F"
Cd       0.00000000       0.00000000       9.00000000        3        0 cdte_substrate  T
Te       2.29102597       3.96817338      11.80592231        3        0 cdte_substrate  T
Cd       4.58205194       2.64544892      12.74122974        2        0 cdte_substrate  F
Te       4.58205194       2.64544892      15.54715205        2        0 cdte_substrate  F
Cd       2.29102597       1.32272446      16.48245949        1        0 cdte_substrate  F
Te       2.29102597       1.32272446      19.28838180        1        0 interface_cdte_surface  F
Cd       2.29102597       3.96817338       9.00000000        3        0 cdte_substrate  T
Te       4.58205194       7.93634677      11.80592231        3        0 cdte_substrate  T
Cd       6.87307791       6.61362231      12.74122974        2        0 cdte_substrate  F
Te       6.87307791       6.61362231      15.54715205        2        0 cdte_substrate  F
Cd       4.58205194       5.29089784      16.48245949        1        0 cdte_substrate  F
Te       4.58205194       5.29089784      19.28838180        1        0 interface_cdte_surface  F
Cd       4.58205194       7.93634677       9.00000000        3        0 cdte_substrate  T
Te       6.87307791      11.90452015      11.80592231        3        0 cdte_substrate  T
Cd       9.16410388      10.58179569      12.74122974        2        0 cdte_substrate  F
Te       9.16410388      10.58179569      15.54715205        2        0 cdte_substrate  F
Cd       6.87307791       9.25907123      16.48245949        1        0 cdte_substrate  F
Te       6.87307791       9.25907123      19.28838180        1        0 interface_cdte_surface  F
Cd       6.87307791      11.90452015       9.00000000        3        0 cdte_substrate  T
Te       9.16410388      15.87269353      11.80592231        3        0 cdte_substrate  T
Cd      11.45512986      14.54996907      12.74122974        2        0 cdte_substrate  F
Te      11.45512986      14.54996907      15.54715205        2        0 cdte_substrate  F
Cd       9.16410388      13.22724461      16.48245949        1        0 cdte_substrate  F
Te       9.16410388      13.22724461      19.28838180        1        0 interface_cdte_surface  F
Cd       9.16410388      15.87269353       9.00000000        3        0 cdte_substrate  T
Te       6.87307791       3.96817338      11.80592231        3        0 cdte_substrate  T
Cd       9.16410388       2.64544892      12.74122974        2        0 cdte_substrate  F
Te       9.16410388       2.64544892      15.54715205        2        0 cdte_substrate  F
Cd      11.45512986      17.19541799      16.48245949        1        0 cdte_substrate  F
Te      11.45512986      17.19541799      19.28838180        1        0 interface_cdte_surface  F
Cd       6.87307791       3.96817338       9.00000000        3        0 cdte_substrate  T
Te       9.16410388       7.93634677      11.80592231        3        0 cdte_substrate  T
Cd      11.45512986       6.61362231      12.74122974        2        0 cdte_substrate  F
Te      11.45512986       6.61362231      15.54715205        2        0 cdte_substrate  F
Cd       9.16410388       5.29089784      16.48245949        1        0 cdte_substrate  F
Te       9.16410388       5.29089784      19.28838180        1        0 interface_cdte_surface  F
Cd       9.16410388       7.93634677       9.00000000        3        0 cdte_substrate  T
Te      11.45512986      11.90452015      11.80592231        3        0 cdte_substrate  T
Cd      13.74615583      10.58179569      12.74122974        2        0 cdte_substrate  F
Te      13.74615583      10.58179569      15.54715205        2        0 cdte_substrate  F
Cd      11.45512986       9.25907123      16.48245949        1        0 cdte_substrate  F
Te      11.45512986       9.25907123      19.28838180        1        0 interface_cdte_surface  F
Cd      11.45512986      11.90452015       9.00000000        3        0 cdte_substrate  T
Te      13.74615583      15.87269353      11.80592231        3        0 cdte_substrate  T
Cd      16.03718180      14.54996907      12.74122974        2        0 cdte_substrate  F
Te      16.03718180      14.54996907      15.54715205        2        0 cdte_substrate  F
Cd      13.74615583      13.22724461      16.48245949        1        0 cdte_substrate  F
Te      13.74615583      13.22724461      19.28838180        1        0 interface_cdte_surface  F
Cd      13.74615583      15.87269353       9.00000000        3        0 cdte_substrate  T
Te      11.45512986       3.96817338      11.80592231        3        0 cdte_substrate  T
Cd      18.32820777      18.51814246      12.74122974        2        0 cdte_substrate  F
Te      18.32820777      18.51814246      15.54715205        2        0 cdte_substrate  F
Cd      16.03718180      17.19541799      16.48245949        1        0 cdte_substrate  F
Te      16.03718180      17.19541799      19.28838180        1        0 interface_cdte_surface  F
Cd      11.45512986       3.96817338       9.00000000        3        0 cdte_substrate  T
Te      13.74615583       7.93634677      11.80592231        3        0 cdte_substrate  T
Cd      16.03718180       6.61362231      12.74122974        2        0 cdte_substrate  F
Te      16.03718180       6.61362231      15.54715205        2        0 cdte_substrate  F
Cd      13.74615583       5.29089784      16.48245949        1        0 cdte_substrate  F
Te      13.74615583       5.29089784      19.28838180        1        0 interface_cdte_surface  F
Cd      13.74615583       7.93634677       9.00000000        3        0 cdte_substrate  T
Te      16.03718180      11.90452015      11.80592231        3        0 cdte_substrate  T
Cd       2.29102597       6.61362231      12.74122974        2        0 cdte_substrate  F
Te       2.29102597       6.61362231      15.54715205        2        0 cdte_substrate  F
Cd      16.03718180       9.25907123      16.48245949        1        0 cdte_substrate  F
Te      16.03718180       9.25907123      19.28838180        1        0 interface_cdte_surface  F
Cd      16.03718180      11.90452015       9.00000000        3        0 cdte_substrate  T
Te      18.32820777      15.87269353      11.80592231        3        0 cdte_substrate  T
Cd       4.58205194      10.58179569      12.74122974        2        0 cdte_substrate  F
Te       4.58205194      10.58179569      15.54715205        2        0 cdte_substrate  F
Cd      18.32820777      13.22724461      16.48245949        1        0 cdte_substrate  F
Te      18.32820777      13.22724461      19.28838180        1        0 interface_cdte_surface  F
Cd      18.32820777      15.87269353       9.00000000        3        0 cdte_substrate  T
Te       0.00000000       0.00000000      11.80592231        3        0 cdte_substrate  T
Cd       6.87307791      14.54996907      12.74122974        2        0 cdte_substrate  F
Te       6.87307791      14.54996907      15.54715205        2        0 cdte_substrate  F
Cd       4.58205194      13.22724461      16.48245949        1        0 cdte_substrate  F
Te       4.58205194      13.22724461      19.28838180        1        0 interface_cdte_surface  F
Cu       3.43653896       3.30681115      21.88838180        0        0 interface_cute_layer  F
Cu       1.71826948       1.65340558      21.88838180        0        0 interface_cute_layer  F
Te       0.00000000       0.00000000      22.94644484        0        1 interface_cute_layer  F
Cu       4.58205194       7.27498454      21.88838180        0        0 interface_cute_layer  F
Cu       2.86378246       5.62157896      21.88838180        0        0 interface_cute_layer  F
Te       1.14551299       3.96817338      22.94644484        0        1 interface_cute_layer  F
Cu       5.72756493      11.24315792      21.88838180        0        0 interface_cute_layer  F
Cu       4.00929545       9.58975234      21.88838180        0        0 interface_cute_layer  F
Te       2.29102597       7.93634677      22.94644484        0        1 interface_cute_layer  F
Cu       6.87307791      15.21133130      21.88838180        0        0 interface_cute_layer  F
Cu       5.15480844      13.55792573      21.88838180        0        0 interface_cute_layer  F
Te       3.43653896      11.90452015      22.94644484        0        1 interface_cute_layer  F
Cu       7.44583441       4.29885450      21.88838180        0        0 interface_cute_layer  F
Cu       5.72756493       2.64544892      21.88838180        0        0 interface_cute_layer  F
Te       4.00929545       0.99204335      22.94644484        0        1 interface_cute_layer  F
Cu       8.59134739       8.26702788      21.88838180        0        0 interface_cute_layer  F
Cu       6.87307791       6.61362231      21.88838180        0        0 interface_cute_layer  F
Te       5.15480843       4.96021673      22.94644484        0        1 interface_cute_layer  F
Cu       9.73686038      12.23520127      21.88838180        0        0 interface_cute_layer  F
Cu       8.01859090      10.58179569      21.88838180        0        0 interface_cute_layer  F
Te       6.30032142       8.92839011      22.94644484        0        1 interface_cute_layer  F
Cu      10.88237336      16.20337465      21.88838180        0        0 interface_cute_layer  F
Cu       9.16410388      14.54996907      21.88838180        0        0 interface_cute_layer  F
Te       7.44583441      12.89656350      22.94644484        0        1 interface_cute_layer  F
Cu      11.45512985       5.29089784      21.88838180        0        0 interface_cute_layer  F
Cu       9.73686038       3.63749227      21.88838180        0        0 interface_cute_layer  F
Te       8.01859090       1.98408669      22.94644484        0        1 interface_cute_layer  F
Cu      12.60064284       9.25907123      21.88838180        0        0 interface_cute_layer  F
Cu      10.88237336       7.60566565      21.88838180        0        0 interface_cute_layer  F
Te       9.16410388       5.95226007      22.94644484        0        1 interface_cute_layer  F
Cu      13.74615583      13.22724461      21.88838180        0        0 interface_cute_layer  F
Cu      12.02788635      11.57383903      21.88838180        0        0 interface_cute_layer  F
Te      10.30961687       9.92043346      22.94644484        0        1 interface_cute_layer  F
Cu      14.89166881      17.19541799      21.88838180        0        0 interface_cute_layer  F
Cu      13.17339933      15.54201242      21.88838180        0        0 interface_cute_layer  F
Te      11.45512986      13.88860684      22.94644484        0        1 interface_cute_layer  F
Cu      15.46442530       6.28294119      21.88838180        0        0 interface_cute_layer  F
Cu      13.74615583       4.62953561      21.88838180        0        0 interface_cute_layer  F
Te      12.02788635       2.97613004      22.94644484        0        1 interface_cute_layer  F
Cu      16.60993829      10.25111457      21.88838180        0        0 interface_cute_layer  F
Cu      14.89166881       8.59770900      21.88838180        0        0 interface_cute_layer  F
Te      13.17339933       6.94430342      22.94644484        0        1 interface_cute_layer  F
Cu      17.75545128      14.21928796      21.88838180        0        0 interface_cute_layer  F
Cu      16.03718180      12.56588238      21.88838180        0        0 interface_cute_layer  F
Te      14.31891232      10.91247680      22.94644484        0        1 interface_cute_layer  F
Cu      18.90096426      18.18746134      21.88838180        0        0 interface_cute_layer  F
Cu      17.18269478      16.53405576      21.88838180        0        0 interface_cute_layer  F
Te      15.46442530      14.88065019      22.94644484        0        1 interface_cute_layer  F
