174

Cd      0.000000000000000      0.000000000000000      9.000000000000000
Te      2.291025971044414      3.968173383308748     11.805922308261581
Cd      4.582051942088828      2.645448922205832     12.741229744348775
Te      4.582051942088827      2.645448922205832     15.547152052610356
Cd      2.291025971044414      1.322724461102916     16.482459488697550
Te      2.291025971044412      1.322724461102915     19.288381796959129
Cd      2.291025971044415      3.968173383308748      9.000000000000000
Te      4.582051942088829      7.936346766617496     11.805922308261581
Cd      6.873077913133243      6.613622305514580     12.741229744348775
Te      6.873077913133242      6.613622305514579     15.547152052610356
Cd      4.582051942088827      5.290897844411663     16.482459488697550
Te      4.582051942088826      5.290897844411663     19.288381796959129
Cd      4.582051942088830      7.936346766617497      9.000000000000000
Te      6.873077913133244     11.904520149926244     11.805922308261581
Cd      9.164103884177656     10.581795688823327     12.741229744348775
Te      9.164103884177655     10.581795688823327     15.547152052610356
Cd      6.873077913133244      9.259071227720414     16.482459488697550
Te      6.873077913133242      9.259071227720412     19.288381796959129
Cd      6.873077913133244     11.904520149926244      9.000000000000000
Te      9.164103884177658     15.872693533234992     11.805922308261581
Cd     11.455129855222072     14.549969072132077     12.741229744348775
Te     11.455129855222072     14.549969072132077     15.547152052610356
Cd      9.164103884177656     13.227244611029160     16.482459488697550
Te      9.164103884177655     13.227244611029160     19.288381796959129
Cd      9.164103884177660     15.872693533234994      9.000000000000000
Te      6.873077913133243      3.968173383308751     11.805922308261581
Cd      9.164103884177658      2.645448922205835     12.741229744348775
Te      9.164103884177658      2.645448922205835     15.547152052610356
Cd     11.455129855222074     17.195417994337912     16.482459488697550
Te     11.455129855222072     17.195417994337909     19.288381796959129
Cd      6.873077913133242      3.968173383308748      9.000000000000000
Te      9.164103884177656      7.936346766617496     11.805922308261581
Cd     11.455129855222070      6.613622305514580     12.741229744348775
Te     11.455129855222069      6.613622305514581     15.547152052610356
Cd      9.164103884177656      5.290897844411665     16.482459488697550
Te      9.164103884177655      5.290897844411663     19.288381796959129
Cd      9.164103884177658      7.936346766617497      9.000000000000000
Te     11.455129855222072     11.904520149926245     11.805922308261581
Cd     13.746155826266484     10.581795688823329     12.741229744348775
Te     13.746155826266483     10.581795688823330     15.547152052610356
Cd     11.455129855222070      9.259071227720412     16.482459488697550
Te     11.455129855222069      9.259071227720412     19.288381796959129
Cd     11.455129855222074     11.904520149926247      9.000000000000000
Te     13.746155826266488     15.872693533234994     11.805922308261581
Cd     16.037181797310900     14.549969072132077     12.741229744348775
Te     16.037181797310900     14.549969072132077     15.547152052610356
Cd     13.746155826266488     13.227244611029160     16.482459488697550
Te     13.746155826266486     13.227244611029160     19.288381796959129
Cd     13.746155826266488     15.872693533234996      9.000000000000000
Te     11.455129855222070      3.968173383308751     11.805922308261581
Cd     18.328207768355316     18.518142455440824     12.741229744348775
Te     18.328207768355316     18.518142455440824     15.547152052610356
Cd     16.037181797310900     17.195417994337909     16.482459488697550
Te     16.037181797310900     17.195417994337909     19.288381796959129
Cd     11.455129855222072      3.968173383308748      9.000000000000000
Te     13.746155826266484      7.936346766617495     11.805922308261581
Cd     16.037181797310897      6.613622305514580     12.741229744348775
Te     16.037181797310897      6.613622305514579     15.547152052610356
Cd     13.746155826266484      5.290897844411663     16.482459488697550
Te     13.746155826266483      5.290897844411663     19.288381796959129
Cd     13.746155826266484      7.936346766617497      9.000000000000000
Te     16.037181797310900     11.904520149926245     11.805922308261581
Cd      2.291025971044415      6.613622305514582     12.741229744348775
Te      2.291025971044415      6.613622305514582     15.547152052610356
Cd     16.037181797310900      9.259071227720412     16.482459488697550
Te     16.037181797310897      9.259071227720414     19.288381796959129
Cd     16.037181797310904     11.904520149926245      9.000000000000000
Te     18.328207768355320     15.872693533234994     11.805922308261581
Cd      4.582051942088832     10.581795688823329     12.741229744348775
Te      4.582051942088832     10.581795688823329     15.547152052610356
Cd     18.328207768355316     13.227244611029160     16.482459488697550
Te     18.328207768355316     13.227244611029160     19.288381796959129
Cd     18.328207768355316     15.872693533234994      9.000000000000000
Te      0.000000000000002      0.000000000000005     11.805922308261581
Cd      6.873077913133242     14.549969072132077     12.741229744348775
Te      6.873077913133242     14.549969072132077     15.547152052610356
Cd      4.582051942088829     13.227244611029162     16.482459488697550
Te      4.582051942088829     13.227244611029162     19.288381796959129
Cu      3.436538956337519      3.306811152823427     21.888381796959131
Cu      1.718269478512413      1.653405576312509     21.888381796959131
Cu      1.718269478512413      1.653405576312509     26.816346672559128
Cu      3.436538956337519      3.306811152823427     26.816346672559128
Te      0.000000000000000      0.000000000000000     22.946444843779130
Te      0.000000000000000      0.000000000000000     25.758283625739129
Cu      4.582051941859726      7.274984536132176     21.888381796959131
Cu      2.863782464034621      5.621578959621258     21.888381796959131
Cu      2.863782464034621      5.621578959621258     26.816346672559128
Cu      4.582051941859726      7.274984536132175     26.816346672559128
Te      1.145512985522207      3.968173383308748     22.946444843779130
Te      1.145512985522207      3.968173383308748     25.758283625739129
Cu      5.727564927381932     11.243157919440925     21.888381796959131
Cu      4.009295449556829      9.589752342930005     21.888381796959131
Cu      4.009295449556829      9.589752342930005     26.816346672559128
Cu      5.727564927381932     11.243157919440925     26.816346672559128
Te      2.291025971044413      7.936346766617496     22.946444843779130
Te      2.291025971044413      7.936346766617496     25.758283625739129
Cu      6.873077912904139     15.211331302749674     21.888381796959131
Cu      5.154808435079035     13.557925726238755     21.888381796959131
Cu      5.154808435079035     13.557925726238755     26.816346672559128
Cu      6.873077912904139     15.211331302749674     26.816346672559128
Te      3.436538956566621     11.904520149926245     22.946444843779130
Te      3.436538956566621     11.904520149926245     25.758283625739129
Cu      7.445834405665244      4.298854498650615     21.888381796959131
Cu      5.727564927840139      2.645448922139696     21.888381796959131
Cu      5.727564927840139      2.645448922139696     26.816346672559128
Cu      7.445834405665244      4.298854498650615     26.816346672559128
Te      4.009295449327725      0.992043345827187     22.946444843779130
Te      4.009295449327725      0.992043345827187     25.758283625739129
Cu      8.591347391187451      8.267027881959363     21.888381796959131
Cu      6.873077913362345      6.613622305448446     21.888381796959131
Cu      6.873077913362345      6.613622305448446     26.816346672559128
Cu      8.591347391187451      8.267027881959361     26.816346672559128
Te      5.154808434849931      4.960216729135936     22.946444843779130
Te      5.154808434849931      4.960216729135936     25.758283625739129
Cu      9.736860376709659     12.235201265268113     21.888381796959131
Cu      8.018590898884552     10.581795688757193     21.888381796959131
Cu      8.018590898884552     10.581795688757193     26.816346672559128
Cu      9.736860376709659     12.235201265268113     26.816346672559128
Te      6.300321420372138      8.928390112444683     22.946444843779130
Te      6.300321420372138      8.928390112444683     25.758283625739129
Cu     10.882373362231865     16.203374648576862     21.888381796959131
Cu      9.164103884406760     14.549969072065942     21.888381796959131
Cu      9.164103884406760     14.549969072065942     26.816346672559128
Cu     10.882373362231865     16.203374648576862     26.816346672559128
Te      7.445834405894345     12.896563495753433     22.946444843779130
Te      7.445834405894345     12.896563495753433     25.758283625739129
Cu     11.455129854992968      5.290897844477802     21.888381796959131
Cu      9.736860377167861      3.637492267966883     21.888381796959131
Cu      9.736860377167861      3.637492267966883     26.816346672559128
Cu     11.455129854992968      5.290897844477802     26.816346672559128
Te      8.018590898655448      1.984086691654374     22.946444843779130
Te      8.018590898655448      1.984086691654374     25.758283625739129
Cu     12.600642840515173      9.259071227786549     21.888381796959131
Cu     10.882373362690068      7.605665651275632     21.888381796959131
Cu     10.882373362690068      7.605665651275632     26.816346672559128
Cu     12.600642840515174      9.259071227786549     26.816346672559128
Te      9.164103884177655      5.952260074963122     22.946444843779130
Te      9.164103884177655      5.952260074963122     25.758283625739129
Cu     13.746155826037381     13.227244611095299     21.888381796959131
Cu     12.027886348212276     11.573839034584379     21.888381796959131
Cu     12.027886348212276     11.573839034584379     26.816346672559128
Cu     13.746155826037381     13.227244611095299     26.816346672559128
Te     10.309616869699862      9.920433458271869     22.946444843779130
Te     10.309616869699862      9.920433458271869     25.758283625739129
Cu     14.891668811559590     17.195417994404046     21.888381796959131
Cu     13.173399333734480     15.542012417893128     21.888381796959131
Cu     13.173399333734480     15.542012417893128     26.816346672559128
Cu     14.891668811559590     17.195417994404046     26.816346672559128
Te     11.455129855222069     13.888606841580620     22.946444843779130
Te     11.455129855222069     13.888606841580620     25.758283625739129
Cu     15.464425304320693      6.282941190304989     21.888381796959131
Cu     13.746155826495587      4.629535613794070     21.888381796959131
Cu     13.746155826495587      4.629535613794070     26.816346672559128
Cu     15.464425304320693      6.282941190304989     26.816346672559128
Te     12.027886347983173      2.976130037481561     22.946444843779130
Te     12.027886347983173      2.976130037481561     25.758283625739129
Cu     16.609938289842901     10.251114573613737     21.888381796959131
Cu     14.891668812017791      8.597708997102819     21.888381796959131
Cu     14.891668812017791      8.597708997102819     26.816346672559128
Cu     16.609938289842901     10.251114573613735     26.816346672559128
Te     13.173399333505381      6.944303420790309     22.946444843779130
Te     13.173399333505381      6.944303420790309     25.758283625739129
Cu     17.755451275365104     14.219287956922486     21.888381796959131
Cu     16.037181797539994     12.565882380411566     21.888381796959131
Cu     16.037181797539994     12.565882380411566     26.816346672559128
Cu     17.755451275365104     14.219287956922486     26.816346672559128
Te     14.318912319027589     10.912476804099057     22.946444843779130
Te     14.318912319027589     10.912476804099057     25.758283625739129
Cu     18.900964260887314     18.187461340231234     21.888381796959131
Cu     17.182694783062207     16.534055763720314     21.888381796959131
Cu     17.182694783062207     16.534055763720314     26.816346672559128
Cu     18.900964260887314     18.187461340231234     26.816346672559128
Te     15.464425304549797     14.880650187407808     22.946444843779130
Te     15.464425304549797     14.880650187407808     25.758283625739129
