126

Cd      0.000000000000000      0.000000000000000      9.000000000000000
Te      2.291025970000000      3.968173380000000     11.805922310000000
Cd      4.582051940000000      2.645448920000000     12.741229740000000
Te      4.582051940000000      2.645448920000000     15.547152049999999
Cd      2.291025970000000      1.322724460000000     16.482459490000000
Te      2.291025970000000      1.322724460000000     19.288381800000000
Cd      2.291025970000000      3.968173380000000      9.000000000000000
Te      4.582051940000000      7.936346770000000     11.805922310000000
Cd      6.873077910000000      6.613622310000000     12.741229740000000
Te      6.873077910000000      6.613622310000000     15.547152049999999
Cd      4.582051940000000      5.290897840000000     16.482459490000000
Te      4.582051940000000      5.290897840000000     19.288381800000000
Cd      4.582051940000000      7.936346770000000      9.000000000000000
Te      6.873077910000000     11.904520150000000     11.805922310000000
Cd      9.164103880000001     10.581795690000000     12.741229740000000
Te      9.164103880000001     10.581795690000000     15.547152049999999
Cd      6.873077910000000      9.259071230000000     16.482459490000000
Te      6.873077910000000      9.259071230000000     19.288381800000000
Cd      6.873077910000000     11.904520150000000      9.000000000000000
Te      9.164103880000001     15.872693529999999     11.805922310000000
Cd     11.455129860000000     14.549969070000000     12.741229740000000
Te     11.455129860000000     14.549969070000000     15.547152049999999
Cd      9.164103880000001     13.227244610000000     16.482459490000000
Te      9.164103880000001     13.227244610000000     19.288381800000000
Cd      9.164103880000001     15.872693529999999      9.000000000000000
Te      6.873077910000000      3.968173380000000     11.805922310000000
Cd      9.164103880000001      2.645448920000000     12.741229740000000
Te      9.164103880000001      2.645448920000000     15.547152049999999
Cd     11.455129860000000     17.195417989999999     16.482459490000000
Te     11.455129860000000     17.195417989999999     19.288381800000000
Cd      6.873077910000000      3.968173380000000      9.000000000000000
Te      9.164103880000001      7.936346770000000     11.805922310000000
Cd     11.455129860000000      6.613622310000000     12.741229740000000
Te     11.455129860000000      6.613622310000000     15.547152049999999
Cd      9.164103880000001      5.290897840000000     16.482459490000000
Te      9.164103880000001      5.290897840000000     19.288381800000000
Cd      9.164103880000001      7.936346770000000      9.000000000000000
Te     11.455129860000000     11.904520150000000     11.805922310000000
Cd     13.746155829999999     10.581795690000000     12.741229740000000
Te     13.746155829999999     10.581795690000000     15.547152049999999
Cd     11.455129860000000      9.259071230000000     16.482459490000000
Te     11.455129860000000      9.259071230000000     19.288381800000000
Cd     11.455129860000000     11.904520150000000      9.000000000000000
Te     13.746155829999999     15.872693529999999     11.805922310000000
Cd     16.037181799999999     14.549969070000000     12.741229740000000
Te     16.037181799999999     14.549969070000000     15.547152049999999
Cd     13.746155829999999     13.227244610000000     16.482459490000000
Te     13.746155829999999     13.227244610000000     19.288381800000000
Cd     13.746155829999999     15.872693529999999      9.000000000000000
Te     11.455129860000000      3.968173380000000     11.805922310000000
Cd     18.328207769999999     18.518142460000000     12.741229740000000
Te     18.328207769999999     18.518142460000000     15.547152049999999
Cd     16.037181799999999     17.195417989999999     16.482459490000000
Te     16.037181799999999     17.195417989999999     19.288381800000000
Cd     11.455129860000000      3.968173380000000      9.000000000000000
Te     13.746155829999999      7.936346770000000     11.805922310000000
Cd     16.037181799999999      6.613622310000000     12.741229740000000
Te     16.037181799999999      6.613622310000000     15.547152049999999
Cd     13.746155829999999      5.290897840000000     16.482459490000000
Te     13.746155829999999      5.290897840000000     19.288381800000000
Cd     13.746155829999999      7.936346770000000      9.000000000000000
Te     16.037181799999999     11.904520150000000     11.805922310000000
Cd      2.291025970000000      6.613622310000000     12.741229740000000
Te      2.291025970000000      6.613622310000000     15.547152049999999
Cd     16.037181799999999      9.259071230000000     16.482459490000000
Te     16.037181799999999      9.259071230000000     19.288381800000000
Cd     16.037181799999999     11.904520150000000      9.000000000000000
Te     18.328207769999999     15.872693529999999     11.805922310000000
Cd      4.582051940000000     10.581795690000000     12.741229740000000
Te      4.582051940000000     10.581795690000000     15.547152049999999
Cd     18.328207769999999     13.227244610000000     16.482459490000000
Te     18.328207769999999     13.227244610000000     19.288381800000000
Cd     18.328207769999999     15.872693529999999      9.000000000000000
Te      0.000000000000000      0.000000000000000     11.805922310000000
Cd      6.873077910000000     14.549969070000000     12.741229740000000
Te      6.873077910000000     14.549969070000000     15.547152049999999
Cd      4.582051940000000     13.227244610000000     16.482459490000000
Te      4.582051940000000     13.227244610000000     19.288381800000000
Cu      7.445834410000000      4.298854500000000     21.888381800000001
Cu      5.727564930000000      2.645448920000000     21.888381800000001
Cu      5.727564930000000      2.645448920000000     26.816346670000001
Cu      7.445834410000000      4.298854500000000     26.816346670000001
Te      4.009295450000000      0.992043350000000     22.946444840000002
Te      4.009295450000000      0.992043350000000     25.758283630000001
Cu      8.591347389999999      8.267027880000001     21.888381800000001
Cu      6.873077910000000      6.613622310000000     21.888381800000001
Cu      6.873077910000000      6.613622310000000     26.816346670000001
Cu      8.591347389999999      8.267027880000001     26.816346670000001
Te      5.154808430000000      4.960216730000000     22.946444840000002
Te      5.154808430000000      4.960216730000000     25.758283630000001
Cu      9.736860380000000     12.235201269999999     21.888381800000001
Cu      8.018590900000000     10.581795690000000     21.888381800000001
Cu      8.018590900000000     10.581795690000000     26.816346670000001
Cu      9.736860380000000     12.235201269999999     26.816346670000001
Te      6.300321420000000      8.928390110000000     22.946444840000002
Te      6.300321420000000      8.928390110000000     25.758283630000001
Cu     10.882373360000001     16.203374650000001     21.888381800000001
Cu      9.164103880000001     14.549969070000000     21.888381800000001
Cu      9.164103880000001     14.549969070000000     26.816346670000001
Cu     10.882373360000001     16.203374650000001     26.816346670000001
Te      7.445834410000000     12.896563499999999     22.946444840000002
Te      7.445834410000000     12.896563499999999     25.758283630000001
Cu     11.455129850000001      5.290897840000000     21.888381800000001
Cu      9.736860380000000      3.637492270000000     21.888381800000001
Cu      9.736860380000000      3.637492270000000     26.816346670000001
Cu     11.455129850000001      5.290897840000000     26.816346670000001
Te      8.018590900000000      1.984086690000000     22.946444840000002
Te      8.018590900000000      1.984086690000000     25.758283630000001
Cu     12.600642840000001      9.259071230000000     21.888381800000001
Cu     10.882373360000001      7.605665650000000     21.888381800000001
Cu     10.882373360000001      7.605665650000000     26.816346670000001
Cu     12.600642840000001      9.259071230000000     26.816346670000001
Te      9.164103880000001      5.952260070000000     22.946444840000002
Te      9.164103880000001      5.952260070000000     25.758283630000001
Cu     13.746155829999999     13.227244610000000     21.888381800000001
Cu     12.027886349999999     11.573839030000000     21.888381800000001
Cu     12.027886349999999     11.573839030000000     26.816346670000001
Cu     13.746155829999999     13.227244610000000     26.816346670000001
Te     10.309616869999999      9.920433460000000     22.946444840000002
Te     10.309616869999999      9.920433460000000     25.758283630000001
Cu     14.891668810000001     17.195417989999999     21.888381800000001
Cu     13.173399330000001     15.542012420000001     21.888381800000001
Cu     13.173399330000001     15.542012420000001     26.816346670000001
Cu     14.891668810000001     17.195417989999999     26.816346670000001
Te     11.455129860000000     13.888606840000000     22.946444840000002
Te     11.455129860000000     13.888606840000000     25.758283630000001
