 DBCSR| CPU Multiplication driver                                           XSMM (U)
 DBCSR| Multrec recursion limit                                              512 (U)
 DBCSR| Multiplication stack size                                           1000 (D)
 DBCSR| Maximum elements for images                                    UNLIMITED (U)
 DBCSR| Multiplicative factor virtual images                                   1 (U)
 DBCSR| Use multiplication densification                                       T (D)
 DBCSR| Multiplication size stacks                                             3 (U)
 DBCSR| Use memory pool for CPU allocation                                     F (U)
 DBCSR| Number of 3D layers                                               SINGLE (U)
 DBCSR| Use MPI memory allocation                                              F (U)
 DBCSR| Use RMA algorithm                                                      F (U)
 DBCSR| Use Communication thread                                               T (U)
 DBCSR| Communication thread load                                             75 (D)
 DBCSR| MPI: My process id                                                     0
 DBCSR| MPI: Number of processes                                               1
 DBCSR| OMP: Current number of threads                                         4
 DBCSR| OMP: Max number of threads                                             4
 DBCSR| Split modifier for TAS multiplication algorithm                  1.0E+00 (U)


  **** **** ******  **  PROGRAM STARTED AT               2026-07-26 04:51:36.966
 ***** ** ***  *** **   PROGRAM STARTED ON                          8f27a96a5c5a
 **    ****   ******    PROGRAM STARTED BY                             <unknown>
 ***** **    ** ** **   PROGRAM PROCESS ID                                   585
  **** **  *******  **  PROGRAM STARTED IN                                 /work

 CP2K| version string:                                       CP2K version 2024.3
 CP2K| source code revision number:                                  git:6712648
 CP2K| cp2kflags: omp libint fftw3 libxc libgrpp pexsi elpa parallel scalapack c
 CP2K|            osma quip xsmm plumed2 spglib libdftd4 sirius libvori libbqb l
 CP2K|            libtorch libvdwxc hdf5
 CP2K| is freely available from                            https://www.cp2k.org/
 CP2K| Program compiled at                          Mon Sep  9 14:39:12 UTC 2024
 CP2K| Program compiled on                                          5c005b387e2b
 CP2K| Program compiled for                                                local
 CP2K| Data directory path                                        /opt/cp2k/data
 CP2K| Input file name                                        input.executed.inp

 GLOBAL| Force Environment number                                              1
 GLOBAL| Basis set file name                                        BASIS_MOLOPT
 GLOBAL| Potential file name                                      GTH_POTENTIALS
 GLOBAL| MM Potential file name                                     MM_POTENTIAL
 GLOBAL| Coordinate file name                                      __STD_INPUT__
 GLOBAL| Method name                                                        CP2K
 GLOBAL| Project name                                                rl_b0_gamma
 GLOBAL| Run type                                                         ENERGY
 GLOBAL| FFT library                                                       FFTW3
 GLOBAL| Diagonalization library                                            ELPA
 GLOBAL| DGEMM library                                                      BLAS
 GLOBAL| Minimum number of eigenvectors for ELPA usage                        16
 GLOBAL| Orthonormality check for eigenvectors                          DISABLED
 GLOBAL| Matrix multiplication library                                     COSMA
 GLOBAL| All-to-all communication in single precision                          F
 GLOBAL| FFTs using library dependent lengths                                  F
 GLOBAL| Grid backend                                                       AUTO
 GLOBAL| Global print level                                                  LOW
 GLOBAL| MPI I/O enabled                                                       T
 GLOBAL| Total number of message passing processes                             1
 GLOBAL| Number of threads for this process                                    4
 GLOBAL| This output is from process                                           0
 GLOBAL| Stack size for threads created by OpenMP (OMP_STACKSIZE)            16M
 GLOBAL| CPU model name                AMD Ryzen 7 8845H w/ Radeon 780M Graphics
 GLOBAL| CPUID                                                              1003
 GLOBAL| Compiled for CPUID                                                    0

 *** HINT in environment.F:921 :: The compiler target flags (generic) used ***
 *** to build this binary cannot exploit all extensions of this CPU model  ***
 *** (x86_avx512). Consider compiler target flags as part of FCFLAGS and   ***
 *** CFLAGS (ARCH file).                                                   ***


 MEMORY| system memory details [Kb]
 MEMORY|                        rank 0           min           max       average
 MEMORY| MemTotal             14211256      14211256      14211256      14211256
 MEMORY| MemFree              12529012      12529012      12529012      12529012
 MEMORY| Buffers                143832        143832        143832        143832
 MEMORY| Cached                 886400        886400        886400        886400
 MEMORY| Slab                    97452         97452         97452         97452
 MEMORY| SReclaimable            23484         23484         23484         23484
 MEMORY| MemLikelyFree        13582728      13582728      13582728      13582728


 GENERATE|  Preliminary Number of Bonds generated:                             0
 GENERATE|  Achieved consistency in connectivity generation.

 *******************************************************************************
 *******************************************************************************
 **                                                                           **
 **     #####                         ##              ##                      **
 **    ##   ##            ##          ##              ##                      **
 **   ##     ##                       ##            ######                    **
 **   ##     ##  ##   ##  ##   #####  ##  ##   ####   ##    #####    #####    **
 **   ##     ##  ##   ##  ##  ##      ## ##   ##      ##   ##   ##  ##   ##   **
 **   ##  ## ##  ##   ##  ##  ##      ####     ###    ##   ######   ######    **
 **    ##  ###   ##   ##  ##  ##      ## ##      ##   ##   ##       ##        **
 **     #######   #####   ##   #####  ##  ##  ####    ##    #####   ##        **
 **           ##                                                    ##        **
 **                                                                           **
 **                                                ... make the atoms dance   **
 **                                                                           **
 **            Copyright (C) by CP2K developers group (2000-2024)             **
 **                      J. Chem. Phys. 152, 194103 (2020)                    **
 **                                                                           **
 *******************************************************************************


 TOTAL NUMBERS AND MAXIMUM NUMBERS

  Total number of            - Atomic kinds:                                   2
                             - Atoms:                                         78
                             - Shell sets:                                    78
                             - Shells:                                       468
                             - Primitive Cartesian functions:                390
                             - Cartesian basis functions:                   1716
                             - Spherical basis functions:                   1482

  Maximum angular momentum of- Orbital basis functions:                        3
                             - Local part of the GTH pseudopotential:          0
                             - Non-local part of the GTH pseudopotential:      4


 SCF PARAMETERS         Density guess:                                    ATOMIC
                        --------------------------------------------------------
                        max_scf:                                             150
                        max_scf_history:                                       0
                        max_diis:                                              4
                        --------------------------------------------------------
                        eps_scf:                                        1.00E-06
                        eps_scf_history:                                0.00E+00
                        eps_diis:                                       1.00E-01
                        eps_eigval:                                     1.00E-05
                        --------------------------------------------------------
                        level_shift [a.u.]:                             0.000000
                        added MOs                                        40    0
                        --------------------------------------------------------
                        Mixing method:                            BROYDEN_MIXING
                                                charge density mixing in g-space
                        --------------------------------------------------------
                        Smear method:                                FERMI_DIRAC
                        Electronic temperature [K]:                        500.0
                        Electronic temperature [a.u.]:                  1.58E-03
                        Accuracy threshold:                             1.00E-10
                        --------------------------------------------------------
                        No outer SCF

 Number of electrons:                                                        702
 Number of occupied orbitals:                                                351
 Number of molecular orbitals:                                               391

 Number of orbital functions:                                               1482
 Number of independent orbital functions:                                   1482

 Extrapolation method: initial_guess


 SCF WAVEFUNCTION OPTIMIZATION

  Step     Update method      Time    Convergence         Total energy    Change
  ------------------------------------------------------------------------------

 *** WARNING in fm/cp_fm_elpa.F:522 :: Setting real_kernel for ELPA failed ***

     1 NoMix/Diag. 0.15E+00   23.6     1.47529338     -2116.9018478100 -2.12E+03

 *** WARNING in fm/cp_fm_elpa.F:522 :: Setting real_kernel for ELPA failed ***

     2 Broy./Diag. 0.15E+00   38.3     1.30440212     -2118.9622135602 -2.06E+00

 *** WARNING in fm/cp_fm_elpa.F:522 :: Setting real_kernel for ELPA failed ***

     3 Broy./Diag. 0.15E+00   36.4     0.57618637     -2121.2058269752 -2.24E+00

 *** WARNING in fm/cp_fm_elpa.F:522 :: Setting real_kernel for ELPA failed ***

     4 Broy./Diag. 0.15E+00   39.7     0.52843774     -2117.7506738235  3.46E+00

 *** WARNING in fm/cp_fm_elpa.F:522 :: Setting real_kernel for ELPA failed ***

     5 Broy./Diag. 0.15E+00   38.5     0.46246130     -2116.1473808724  1.60E+00

 *** WARNING in fm/cp_fm_elpa.F:522 :: Setting real_kernel for ELPA failed ***

     6 Broy./Diag. 0.15E+00   40.6     0.04977644     -2115.0831937584  1.06E+00

 *** WARNING in fm/cp_fm_elpa.F:522 :: Setting real_kernel for ELPA failed ***

     7 Broy./Diag. 0.15E+00   40.3     0.15242825     -2114.9711375088  1.12E-01

 *** WARNING in fm/cp_fm_elpa.F:522 :: Setting real_kernel for ELPA failed ***

     8 Broy./Diag. 0.15E+00   39.9     0.14791856     -2115.0331360408 -6.20E-02

 *** WARNING in fm/cp_fm_elpa.F:522 :: Setting real_kernel for ELPA failed ***

     9 Broy./Diag. 0.15E+00   39.8     0.01846948     -2114.7988668578  2.34E-01

 *** WARNING in fm/cp_fm_elpa.F:522 :: Setting real_kernel for ELPA failed ***

    10 Broy./Diag. 0.15E+00   41.1     0.03652391     -2114.8047650738 -5.90E-03

 *** WARNING in fm/cp_fm_elpa.F:522 :: Setting real_kernel for ELPA failed ***

    11 Broy./Diag. 0.15E+00   43.5     0.00103732     -2114.8333918590 -2.86E-02

 *** WARNING in fm/cp_fm_elpa.F:522 :: Setting real_kernel for ELPA failed ***

    12 Broy./Diag. 0.15E+00   38.5     0.00703336     -2114.7718304194  6.16E-02

 *** WARNING in fm/cp_fm_elpa.F:522 :: Setting real_kernel for ELPA failed ***

    13 Broy./Diag. 0.15E+00   35.8     0.00569208     -2114.6998588991  7.20E-02

 *** WARNING in fm/cp_fm_elpa.F:522 :: Setting real_kernel for ELPA failed ***

    14 Broy./Diag. 0.15E+00   40.7     0.00161497     -2114.6786093920  2.12E-02

 *** WARNING in fm/cp_fm_elpa.F:522 :: Setting real_kernel for ELPA failed ***

    15 Broy./Diag. 0.15E+00   38.5     0.00109758     -2114.6993522055 -2.07E-02

 *** WARNING in fm/cp_fm_elpa.F:522 :: Setting real_kernel for ELPA failed ***

    16 Broy./Diag. 0.15E+00   39.0     0.00092806     -2114.7008006043 -1.45E-03

 *** WARNING in fm/cp_fm_elpa.F:522 :: Setting real_kernel for ELPA failed ***

    17 Broy./Diag. 0.15E+00   39.4     0.00149314     -2114.6893656629  1.14E-02

 *** WARNING in fm/cp_fm_elpa.F:522 :: Setting real_kernel for ELPA failed ***

    18 Broy./Diag. 0.15E+00   37.7     0.00026090     -2114.6775741998  1.18E-02

 *** WARNING in fm/cp_fm_elpa.F:522 :: Setting real_kernel for ELPA failed ***

    19 Broy./Diag. 0.15E+00   39.0     0.00029506     -2114.6627988196  1.48E-02

 *** WARNING in fm/cp_fm_elpa.F:522 :: Setting real_kernel for ELPA failed ***

    20 Broy./Diag. 0.15E+00   38.9     0.00024858     -2114.6568998388  5.90E-03

 *** WARNING in fm/cp_fm_elpa.F:522 :: Setting real_kernel for ELPA failed ***

    21 Broy./Diag. 0.15E+00   37.1     0.00027074     -2114.6580154717 -1.12E-03

 *** WARNING in fm/cp_fm_elpa.F:522 :: Setting real_kernel for ELPA failed ***

    22 Broy./Diag. 0.15E+00   37.5     0.00009995     -2114.6578087412  2.07E-04

 *** WARNING in fm/cp_fm_elpa.F:522 :: Setting real_kernel for ELPA failed ***

    23 Broy./Diag. 0.15E+00   38.0     0.00009887     -2114.6578125424 -3.80E-06

 *** WARNING in fm/cp_fm_elpa.F:522 :: Setting real_kernel for ELPA failed ***

    24 Broy./Diag. 0.15E+00   33.4     0.00003347     -2114.6562205501  1.59E-03

 *** WARNING in fm/cp_fm_elpa.F:522 :: Setting real_kernel for ELPA failed ***

    25 Broy./Diag. 0.15E+00   35.3     0.00001482     -2114.6567648504 -5.44E-04

 *** WARNING in fm/cp_fm_elpa.F:522 :: Setting real_kernel for ELPA failed ***

    26 Broy./Diag. 0.15E+00   37.0     0.00001716     -2114.6568869312 -1.22E-04

 *** WARNING in fm/cp_fm_elpa.F:522 :: Setting real_kernel for ELPA failed ***

    27 Broy./Diag. 0.15E+00   34.2     0.00000768     -2114.6565962821  2.91E-04

 *** WARNING in fm/cp_fm_elpa.F:522 :: Setting real_kernel for ELPA failed ***

    28 Broy./Diag. 0.15E+00   34.5     0.00000770     -2114.6566468850 -5.06E-05

 *** WARNING in fm/cp_fm_elpa.F:522 :: Setting real_kernel for ELPA failed ***

    29 Broy./Diag. 0.15E+00   34.9     0.00000829     -2114.6566347847  1.21E-05

 *** WARNING in fm/cp_fm_elpa.F:522 :: Setting real_kernel for ELPA failed ***

    30 Broy./Diag. 0.15E+00   33.1     0.00000400     -2114.6566550309 -2.02E-05

 *** WARNING in fm/cp_fm_elpa.F:522 :: Setting real_kernel for ELPA failed ***

    31 Broy./Diag. 0.15E+00   33.9     0.00000213     -2114.6566151803  3.99E-05

 *** WARNING in fm/cp_fm_elpa.F:522 :: Setting real_kernel for ELPA failed ***

    32 Broy./Diag. 0.15E+00   35.1     0.00000410     -2114.6565480568  6.71E-05

 *** WARNING in fm/cp_fm_elpa.F:522 :: Setting real_kernel for ELPA failed ***

    33 Broy./Diag. 0.15E+00   35.6     0.00000217     -2114.6564720575  7.60E-05

 *** WARNING in fm/cp_fm_elpa.F:522 :: Setting real_kernel for ELPA failed ***

    34 Broy./Diag. 0.15E+00   37.9     0.00000192     -2114.6564740825 -2.03E-06

 *** WARNING in fm/cp_fm_elpa.F:522 :: Setting real_kernel for ELPA failed ***

    35 Broy./Diag. 0.15E+00   35.9     0.00000153     -2114.6564916451 -1.76E-05

 *** WARNING in fm/cp_fm_elpa.F:522 :: Setting real_kernel for ELPA failed ***

    36 Broy./Diag. 0.15E+00   34.7     0.00000103     -2114.6564985481 -6.90E-06

 *** WARNING in fm/cp_fm_elpa.F:522 :: Setting real_kernel for ELPA failed ***

    37 Broy./Diag. 0.15E+00   35.1     0.00000142     -2114.6564884260  1.01E-05

 *** WARNING in fm/cp_fm_elpa.F:522 :: Setting real_kernel for ELPA failed ***

    38 Broy./Diag. 0.15E+00   34.7     0.00000034     -2114.6564982875 -9.86E-06

  *** SCF run converged in    38 steps ***


  Electronic density on regular grids:       -701.9999999994        0.0000000006
  Core density on regular grids:              701.9999999987       -0.0000000013
  Total charge density on r-space grids:       -0.0000000007
  Total charge density g-space grids:          -0.0000000007

  Overlap energy of the core charge distribution:               0.00000004235787
  Self energy of the core charge distribution:              -3569.24616538813007
  Core Hamiltonian energy:                                   1078.48997312292136
  Hartree energy:                                             703.56102658958093
  Exchange-correlation energy:                               -327.44725216638528
  Electronic entropic energy:                                  -0.01408048145857
  Fermi energy:                                                -0.18445862054251

  Total energy:                                             -2114.65649828753749

   Calculate DOS at iteration step                                   0

   Calculate PDOS at iteration step                                  0
 OT| Eigensolver reached convergence in 149 iterations

 *** WARNING in fm/cp_fm_elpa.F:522 :: Setting real_kernel for ELPA failed ***


   Compute           13    additional unoccupied KS orbitals

   Prepare the list of atoms for LDOS.   Number of lists:            2
          List        1  contains          78 atoms
          List        2  contains          13 atoms

              ---- PDOS: start iteration on the KS states --- 

 The electron density is written in cube file format to the file:

 electron_density.cube

 ENERGY| Total FORCE_EVAL ( QS ) energy [a.u.]:            -2114.656498287537488

 -------------------------------------------------------------------------------
 -                                                                             -
 -                                DBCSR STATISTICS                             -
 -                                                                             -
 -------------------------------------------------------------------------------
 COUNTER                                    TOTAL       BLAS       SMM       ACC
 flops    64 x    13 x   391              2602496       0.0%    100.0%      0.0%     
 flops    96 x    13 x   391              3903744       0.0%    100.0%      0.0%     
 flops   103 x    13 x   391              4188392       0.0%    100.0%      0.0%     
 flops   266 x    13 x   391             10816624       0.0%    100.0%      0.0%     
 flops    13 x     7 x    13             14394744       0.0%    100.0%      0.0%     
 flops   103 x    13 x  1482             15875184       0.0%    100.0%      0.0%     
 flops   406 x    13 x   391             16509584       0.0%    100.0%      0.0%     
 flops    25 x     7 x    13             27682200       0.0%    100.0%      0.0%     
 flops    13 x     7 x    25             27682200       0.0%    100.0%      0.0%     
 flops   405 x    13 x   391             32937840       0.0%    100.0%      0.0%     
 flops   266 x    13 x    13             40278784       0.0%    100.0%      0.0%     
 flops    64 x    13 x   404             50419200       0.0%    100.0%      0.0%     
 flops    25 x     7 x    25             53235000       0.0%    100.0%      0.0%     
 flops   406 x    13 x    13             61478144       0.0%    100.0%      0.0%     
 flops    96 x    13 x   404             75628800       0.0%    100.0%      0.0%     
 flops   116 x    13 x   404             91384800       0.0%    100.0%      0.0%     
 flops   405 x    13 x    13            122653440       0.0%    100.0%      0.0%     
 flops    13 x    13 x  1482            145766556       0.0%    100.0%      0.0%     
 flops    64 x    13 x  1482            194817792       0.0%    100.0%      0.0%     
 flops   266 x    13 x   404            209554800       0.0%    100.0%      0.0%     
 flops    96 x    13 x  1482            292226688       0.0%    100.0%      0.0%     
 flops    64 x   391 x  1482            296684544       0.0%    100.0%      0.0%     
 flops    64 x   404 x  1482            306548736       0.0%    100.0%      0.0%     
 flops   406 x    13 x   404            319846800       0.0%    100.0%      0.0%     
 flops   116 x    13 x  1482            335228400       0.0%    100.0%      0.0%     
 flops    96 x   391 x  1482            445026816       0.0%    100.0%      0.0%     
 flops    96 x   404 x  1482            459823104       0.0%    100.0%      0.0%     
 flops   103 x   391 x  1482            477476688       0.0%    100.0%      0.0%     
 flops   116 x   404 x  1482            555619584       0.0%    100.0%      0.0%     
 flops   405 x    13 x   404            638118000       0.0%    100.0%      0.0%     
 flops    13 x    32 x    13            789654528       0.0%    100.0%      0.0%     
 flops    25 x    32 x    13           1518566400       0.0%    100.0%      0.0%     
 flops    13 x    32 x    25           1518566400       0.0%    100.0%      0.0%     
 flops    13 x    13 x    13           2028186914       0.0%    100.0%      0.0%     
 flops    25 x    32 x    25           2920320000       0.0%    100.0%      0.0%     
 flops    25 x    13 x    13           3894292350       0.0%    100.0%      0.0%     
 flops    13 x    13 x    25           3894292350       0.0%    100.0%      0.0%     
 flops    13 x    13 x   391           3917163120       0.0%    100.0%      0.0%     
 flops    25 x    13 x   391           7156355700       0.0%    100.0%      0.0%     
 flops    25 x    13 x    25           7489023750       0.0%    100.0%      0.0%     
 flops    13 x    25 x   391           7533006000       0.0%    100.0%      0.0%     
 flops    25 x    25 x   391          14486550000       0.0%    100.0%      0.0%     
 flops inhomo. stacks                  1702145536     100.0%      0.0%      0.0%
 flops total                        64.176533E+09       2.7%     97.3%      0.0%
 flops max/rank                     64.176533E+09       2.7%     97.3%      0.0%
 matmuls inhomo. stacks                       166     100.0%      0.0%      0.0%
 matmuls total                            2280679       0.0%    100.0%      0.0%
 number of processed stacks                  9637       1.7%     98.3%      0.0%
 average stack size                                     1.0     240.8       0.0
 marketing flops                    91.848032E+09
 -------------------------------------------------------------------------------
 # multiplications                           2055
 max memory usage/rank               9.985073E+09
 # max total images/rank                        1
 # max 3D layers                                1
 # MPI messages exchanged                       0
 -------------------------------------------------------------------------------
 -                                                                             -
 -                      DBCSR MESSAGE PASSING PERFORMANCE                      -
 -                                                                             -
 -------------------------------------------------------------------------------
 ROUTINE             CALLS      AVE VOLUME [Bytes]
 MP_Bcast               43                     12.
 MP_Allreduce        10282                      8.
 MP_Alltoall          8388                 941232.
 MP_ISend             8196                  10994.
 MP_IRecv             8196                  10994.
 -------------------------------------------------------------------------------

 -------------------------------------------------------------------------------
 -                                                                             -
 -                                DBM STATISTICS                               -
 -                                                                             -
 -------------------------------------------------------------------------------
    M  x    N  x    K                                          COUNT     PERCENT
 -------------------------------------------------------------------------------

 -------------------------------------------------------------------------------
 -                                                                             -
 -                                GRID STATISTICS                              -
 -                                                                             -
 -------------------------------------------------------------------------------
 LP    KERNEL             BACKEND                              COUNT     PERCENT
 5     collocate general  CPU                                1049490      23.39%
 5     integrate general  CPU                                1022580      22.79%
 4     collocate general  CPU                                 678366      15.12%
 4     integrate general  CPU                                 660972      14.73%
 6     collocate general  CPU                                 544518      12.14%
 6     integrate general  CPU                                 530556      11.83%
 0     collocate general  CPU                                     78       0.00%
 -------------------------------------------------------------------------------

 MEMORY| Estimated peak process memory [MiB]                                9543

 -------------------------------------------------------------------------------
 -                                                                             -
 -                         MESSAGE PASSING PERFORMANCE                         -
 -                                                                             -
 -------------------------------------------------------------------------------

 ROUTINE             CALLS      AVE VOLUME [Bytes]
 MP_Group                4
 MP_Bcast             2458                    577.
 MP_Allreduce         7115                    724.
 MP_Sync              5140
 MP_comm_split          97
 -------------------------------------------------------------------------------


 -------------------------------------------------------------------------------
 -                                                                             -
 -                           R E F E R E N C E S                               -
 -                                                                             -
 -------------------------------------------------------------------------------
 
 CP2K version 2024.3, the CP2K developers group (2024).
 CP2K is freely available from https://www.cp2k.org/ .
 
 T. D. Kuehne, M. Iannuzzi, M. Del Ben, V. V. Rybkin, P. Seewald, F. Stein, T. 
 Laino, R. Z. Khaliullin, O. Schuett, F. Schiffmann, D. Golze, J. Wilhelm, S. 
 Chulkov, M. H. Bani-Hashemian, V. Weber, U. Borstnik, M. Taillefumier, A. S. 
 Jakobovits, A. Lazzaro, H. Pabst, T. Mueller, R. Schade, M. Guidon, S. 
 Andermatt, N. Holmberg, G. K. Schenter, A. Hehn, A. Bussy, F. Belleflamme, G. 
 Tabacchi, A. Gloess, M. Lass, I. Bethune, C. J. Mundy, C. Plessl, M. Watkins, 
 J. VandeVondele, M. Krack, J. Hutter.
 J. Chem. Phys. 152, 194103 (2020).
 CP2K: An electronic structure and molecular dynamics software package - 
 Quickstep: Efficient and accurate electronic structure calculations.
 https://doi.org/10.1063/5.0007045

 O. Schuett, P. Messmer, J. Hutter, J. VandeVondele.
 Electronic Structure Calculations on Graphics Processing Units, 173-190 (2016).
 GPU-Accelerated Sparse Matrix-Matrix Multiplication for Linear Scaling Density 
 Functional Theory.
 https://doi.org/10.1002/9781118670712.ch8

 A. Heinecke, G. Henry, M. Hutchinson, H. Pabst.
 Proceedings of Intl. Supercomputing Conference, 981-991 (2016).
 LIBXSMM: Accelerating Small Matrix Multiplications by Runtime Code Generation.
 https://doi.org/10.1109/SC.2016.83

 J. Hutter, M. Iannuzzi, F. Schiffmann, J. VandeVondele.
 WIREs Comput Mol Sci. 4, 15-25 (2014).
 CP2K: atomistic simulations of condensed matter systems.
 https://doi.org/10.1002/wcms.1159

 U. Borstnik, J. VandeVondele, V. Weber, J. Hutter.
 Parallel Comput. 40, 47-58 (2014).
 Sparse matrix multiplication: The distributed block-compressed sparse row 
 library.
 https://doi.org/10.1016/j.parco.2014.03.012

 A. Marek, V. Blum, R. Johanni, V. Havu, B. Lang, T. Auckenthaler, A. Heinecke, 
 H. Bungartz, H. Lederer.
 J. Phys. Condens. Matter 26, 213201 (2014).
 The ELPA library: scalable parallel eigenvalue solutions for electronic 
 structure theory and computational science.
 https://doi.org/10.1088/0953-8984/26/21/213201

 J. VandeVondele, J. Hutter.
 J. Chem. Phys. 127, 114105 (2007).
 Gaussian basis sets for accurate calculations on molecular systems in gas and 
 condensed phases.
 https://doi.org/10.1063/1.2770708

 J. VandeVondele, M. Krack, F. Mohamed, M. Parrinello, T. Chassaing, J. Hutter.
 Comput. Phys. Commun. 167, 103-128 (2005).
 QUICKSTEP: Fast and accurate density functional calculations using a mixed 
 Gaussian and plane waves approach.
 https://doi.org/10.1016/j.cpc.2004.12.014

 M. Krack.
 Theor. Chem. Acc. 114, 145-152 (2005).
 Pseudopotentials for H to Kr optimized for gradient-corrected 
 exchange-correlation functionals.
 https://doi.org/10.1007/s00214-005-0655-y

 M. Frigo, S. G. Johnson.
 Proc. IEEE 93, 216-231 (2005).
 The design and implementation of FFTW3.
 https://doi.org/10.1109/JPROC.2004.840301

 J. VandeVondele, J. Hutter.
 J. Chem. Phys. 118, 4365-4369 (2003).
 An efficient orbital transformation method for electronic structure 
 calculations.
 https://doi.org/10.1063/1.1543154

 C. Hartwigsen, S. Goedecker, J. Hutter.
 Phys. Rev. B 58, 3641-3662 (1998).
 Relativistic separable dual-space Gaussian pseudopotentials from H to Rn.
 https://doi.org/10.1103/PhysRevB.58.3641

 G. Lippert, J. Hutter, M. Parrinello.
 Mol. Phys. 92, 477-487 (1997).
 A hybrid Gaussian and plane wave density functional scheme.
 https://doi.org/10.1080/002689797170220

 S. Goedecker, M. Teter, J. Hutter.
 Phys. Rev. B 54, 1703-1710 (1996).
 Separable dual-space Gaussian pseudopotentials.
 https://doi.org/10.1103/PhysRevB.54.1703

 J. P. Perdew, K. Burke, M. Ernzerhof.
 Phys. Rev. Lett. 77, 3865-3868 (1996).
 Generalized gradient approximation made simple.
 https://doi.org/10.1103/PhysRevLett.77.3865


 -------------------------------------------------------------------------------
 -                                                                             -
 -                                T I M I N G                                  -
 -                                                                             -
 -------------------------------------------------------------------------------
 SUBROUTINE                       CALLS  ASD         SELF TIME        TOTAL TIME
                                MAXIMUM       AVERAGE  MAXIMUM  AVERAGE  MAXIMUM
 CP2K                                 1  1.0    1.645    1.645 1453.873 1453.873
 qs_energies                          1  2.0    0.010    0.010 1442.651 1442.651
 scf_env_do_scf                       1  3.0    0.002    0.002 1415.674 1415.674
 scf_env_do_scf_inner_loop           38  4.0    0.039    0.039 1415.672 1415.672
 qs_ks_update_qs_env                 38  5.0    0.001    0.001  780.105  780.105
 rebuild_ks_matrix                   38  6.0    0.000    0.000  779.830  779.830
 qs_ks_build_kohn_sham_matrix        38  7.0    0.023    0.023  779.829  779.829
 fft_wrap_pw1pw2                    689 10.0    0.032    0.032  477.067  477.067
 fft_wrap_pw1pw2_200                458 11.3   64.642   64.642  461.489  461.489
 qs_vxc_create                       38  8.0    0.004    0.004  380.773  380.773
 xc_vxc_pw_create                    38  9.0    4.653    4.653  380.770  380.770
 qs_rho_update_rho_low               39  5.0    0.001    0.001  379.821  379.821
 calculate_rho_elec                  39  6.0    2.120    2.120  379.820  379.820
 sum_up_and_integrate                38  8.0    0.003    0.003  327.314  327.314
 integrate_v_rspace                  38  9.0    0.067    0.067  326.472  326.472
 grid_collocate_task_list            39  7.0  278.497  278.497  278.497  278.497
 grid_integrate_task_list            38 10.0  276.864  276.864  276.864  276.864
 fft3d_s                            690 12.0  260.056  260.056  260.062  260.062
 xc_pw_derive                       228 11.0    0.006    0.006  256.194  256.194
 xc_rho_set_and_dset_create          38 10.0    9.865    9.865  196.648  196.648
 gspace_mixing                       37  5.0    1.945    1.945  182.916  182.916
 xc_pw_divergence                    38 10.0    0.005    0.005  178.195  178.195
 broyden_mixing                      37  6.0  146.344  146.344  146.346  146.346
 density_rs2pw                       39  7.0    0.007    0.007   99.204   99.204
 pw_scatter_s                       380 12.2   87.397   87.397   87.397   87.397
 qs_scf_new_mos                      38  5.0    0.003    0.003   79.577   79.577
 eigensolver                         38  6.0    0.019    0.019   71.208   71.208
 xc_functional_eval                  38 11.0    0.001    0.001   68.356   68.356
 pbe_lda_eval                        38 12.0   68.355   68.355   68.355   68.355
 cp_fm_diag_elpa                     39  7.0    0.001    0.001   56.720   56.720
 cp_fm_diag_elpa_base                39  8.0   56.198   56.198   56.719   56.719
 pw_gather_s                        309 11.8   53.520   53.520   53.520   53.520
 potential_pw2rs                     38 10.0    0.125    0.125   49.541   49.541
 pw_derive                          342 11.3   38.507   38.507   38.507   38.507
 pw_poisson_solve                    38  8.0    0.003    0.003   32.383   32.383
 -------------------------------------------------------------------------------

 The number of warnings for this run is : 39
 
 -------------------------------------------------------------------------------
  **** **** ******  **  PROGRAM ENDED AT                 2026-07-26 05:15:51.076
 ***** ** ***  *** **   PROGRAM RAN ON                              8f27a96a5c5a
 **    ****   ******    PROGRAM RAN BY                                 <unknown>
 ***** **    ** ** **   PROGRAM PROCESS ID                                   585
  **** **  *******  **  PROGRAM STOPPED IN                                 /work
