78

Cd      0.000000000000000      0.000000000000000      9.000000000000000
Te      2.291025970000000      3.968173380000000     11.805922310000000
Cd      4.582051940000000      2.645448920000000     12.741229740000000
Te      4.582051940000000      2.645448920000000     15.547152049999999
Cd      2.291025970000000      1.322724460000000     16.482459490000000
Te      2.291025970000000      1.322724460000000     19.288381800000000
Cd      2.291025970000000      3.968173380000000      9.000000000000000
Te      4.582051940000000      7.936346770000000     11.805922310000000
Cd      6.873077910000000      6.613622310000000     12.741229740000000
Te      6.873077910000000      6.613622310000000     15.547152049999999
Cd      4.582051940000000      5.290897840000000     16.482459490000000
Te      4.582051940000000      5.290897840000000     19.288381800000000
Cd      4.582051940000000      7.936346770000000      9.000000000000000
Te      6.873077910000000     11.904520150000000     11.805922310000000
Cd      9.164103880000001     10.581795690000000     12.741229740000000
Te      9.164103880000001     10.581795690000000     15.547152049999999
Cd      6.873077910000000      9.259071230000000     16.482459490000000
Te      6.873077910000000      9.259071230000000     19.288381800000000
Cd      6.873077910000000     11.904520150000000      9.000000000000000
Te      9.164103880000001     15.872693529999999     11.805922310000000
Cd     11.455129860000000     14.549969070000000     12.741229740000000
Te     11.455129860000000     14.549969070000000     15.547152049999999
Cd      9.164103880000001     13.227244610000000     16.482459490000000
Te      9.164103880000001     13.227244610000000     19.288381800000000
Cd      9.164103880000001     15.872693529999999      9.000000000000000
Te      6.873077910000000      3.968173380000000     11.805922310000000
Cd      9.164103880000001      2.645448920000000     12.741229740000000
Te      9.164103880000001      2.645448920000000     15.547152049999999
Cd     11.455129860000000     17.195417989999999     16.482459490000000
Te     11.455129860000000     17.195417989999999     19.288381800000000
Cd      6.873077910000000      3.968173380000000      9.000000000000000
Te      9.164103880000001      7.936346770000000     11.805922310000000
Cd     11.455129860000000      6.613622310000000     12.741229740000000
Te     11.455129860000000      6.613622310000000     15.547152049999999
Cd      9.164103880000001      5.290897840000000     16.482459490000000
Te      9.164103880000001      5.290897840000000     19.288381800000000
Cd      9.164103880000001      7.936346770000000      9.000000000000000
Te     11.455129860000000     11.904520150000000     11.805922310000000
Cd     13.746155829999999     10.581795690000000     12.741229740000000
Te     13.746155829999999     10.581795690000000     15.547152049999999
Cd     11.455129860000000      9.259071230000000     16.482459490000000
Te     11.455129860000000      9.259071230000000     19.288381800000000
Cd     11.455129860000000     11.904520150000000      9.000000000000000
Te     13.746155829999999     15.872693529999999     11.805922310000000
Cd     16.037181799999999     14.549969070000000     12.741229740000000
Te     16.037181799999999     14.549969070000000     15.547152049999999
Cd     13.746155829999999     13.227244610000000     16.482459490000000
Te     13.746155829999999     13.227244610000000     19.288381800000000
Cd     13.746155829999999     15.872693529999999      9.000000000000000
Te     11.455129860000000      3.968173380000000     11.805922310000000
Cd     18.328207769999999     18.518142460000000     12.741229740000000
Te     18.328207769999999     18.518142460000000     15.547152049999999
Cd     16.037181799999999     17.195417989999999     16.482459490000000
Te     16.037181799999999     17.195417989999999     19.288381800000000
Cd     11.455129860000000      3.968173380000000      9.000000000000000
Te     13.746155829999999      7.936346770000000     11.805922310000000
Cd     16.037181799999999      6.613622310000000     12.741229740000000
Te     16.037181799999999      6.613622310000000     15.547152049999999
Cd     13.746155829999999      5.290897840000000     16.482459490000000
Te     13.746155829999999      5.290897840000000     19.288381800000000
Cd     13.746155829999999      7.936346770000000      9.000000000000000
Te     16.037181799999999     11.904520150000000     11.805922310000000
Cd      2.291025970000000      6.613622310000000     12.741229740000000
Te      2.291025970000000      6.613622310000000     15.547152049999999
Cd     16.037181799999999      9.259071230000000     16.482459490000000
Te     16.037181799999999      9.259071230000000     19.288381800000000
Cd     16.037181799999999     11.904520150000000      9.000000000000000
Te     18.328207769999999     15.872693529999999     11.805922310000000
Cd      4.582051940000000     10.581795690000000     12.741229740000000
Te      4.582051940000000     10.581795690000000     15.547152049999999
Cd     18.328207769999999     13.227244610000000     16.482459490000000
Te     18.328207769999999     13.227244610000000     19.288381800000000
Cd     18.328207769999999     15.872693529999999      9.000000000000000
Te      0.000000000000000      0.000000000000000     11.805922310000000
Cd      6.873077910000000     14.549969070000000     12.741229740000000
Te      6.873077910000000     14.549969070000000     15.547152049999999
Cd      4.582051940000000     13.227244610000000     16.482459490000000
Te      4.582051940000000     13.227244610000000     19.288381800000000
