6
Lattice="4.237 0.0 0.0 -2.118499999999999 3.669349635834667 0.0 0.0 0.0 7.24700717" Properties=species:S:1:pos:R:3:spacegroup_kinds:I:1 spacegroup="P 6/m m m" unit_cell=conventional occupancy="_JSON {\"0\": {\"Cu\": 1.0}, \"1\": {\"Te\": 1.0}}" pbc="T T T"
Cu      -0.00000000       2.44623309       1.15952115        0
Cu       2.11850000       1.22311655       1.15952115        0
Cu       2.11850000       1.22311655       6.08748602        0
Cu      -0.00000000       2.44623309       6.08748602        0
Te       0.00000000       0.00000000       2.21758419        1
Te       0.00000000       0.00000000       5.02942298        1
