270

Cd      0.000000000000000      0.000000000000000      9.000000000000000
Te      2.291025970000000      3.968173380000000     11.805922310000000
Cd      4.582051940000000      2.645448920000000     12.741229740000000
Te      4.582051940000000      2.645448920000000     15.547152049999999
Cd      2.291025970000000      1.322724460000000     16.482459490000000
Te      2.291025970000000      1.322724460000000     19.288381800000000
Cd      2.291025970000000      3.968173380000000      9.000000000000000
Te      4.582051940000000      7.936346770000000     11.805922310000000
Cd      6.873077910000000      6.613622310000000     12.741229740000000
Te      6.873077910000000      6.613622310000000     15.547152049999999
Cd      4.582051940000000      5.290897840000000     16.482459490000000
Te      4.582051940000000      5.290897840000000     19.288381800000000
Cd      4.582051940000000      7.936346770000000      9.000000000000000
Te      6.873077910000000     11.904520150000000     11.805922310000000
Cd      9.164103880000001     10.581795690000000     12.741229740000000
Te      9.164103880000001     10.581795690000000     15.547152049999999
Cd      6.873077910000000      9.259071230000000     16.482459490000000
Te      6.873077910000000      9.259071230000000     19.288381800000000
Cd      6.873077910000000     11.904520150000000      9.000000000000000
Te      9.164103880000001     15.872693529999999     11.805922310000000
Cd     11.455129860000000     14.549969070000000     12.741229740000000
Te     11.455129860000000     14.549969070000000     15.547152049999999
Cd      9.164103880000001     13.227244610000000     16.482459490000000
Te      9.164103880000001     13.227244610000000     19.288381800000000
Cd      9.164103880000001     15.872693529999999      9.000000000000000
Te      6.873077910000000      3.968173380000000     11.805922310000000
Cd      9.164103880000001      2.645448920000000     12.741229740000000
Te      9.164103880000001      2.645448920000000     15.547152049999999
Cd     11.455129860000000     17.195417989999999     16.482459490000000
Te     11.455129860000000     17.195417989999999     19.288381800000000
Cd      6.873077910000000      3.968173380000000      9.000000000000000
Te      9.164103880000001      7.936346770000000     11.805922310000000
Cd     11.455129860000000      6.613622310000000     12.741229740000000
Te     11.455129860000000      6.613622310000000     15.547152049999999
Cd      9.164103880000001      5.290897840000000     16.482459490000000
Te      9.164103880000001      5.290897840000000     19.288381800000000
Cd      9.164103880000001      7.936346770000000      9.000000000000000
Te     11.455129860000000     11.904520150000000     11.805922310000000
Cd     13.746155829999999     10.581795690000000     12.741229740000000
Te     13.746155829999999     10.581795690000000     15.547152049999999
Cd     11.455129860000000      9.259071230000000     16.482459490000000
Te     11.455129860000000      9.259071230000000     19.288381800000000
Cd     11.455129860000000     11.904520150000000      9.000000000000000
Te     13.746155829999999     15.872693529999999     11.805922310000000
Cd     16.037181799999999     14.549969070000000     12.741229740000000
Te     16.037181799999999     14.549969070000000     15.547152049999999
Cd     13.746155829999999     13.227244610000000     16.482459490000000
Te     13.746155829999999     13.227244610000000     19.288381800000000
Cd     13.746155829999999     15.872693529999999      9.000000000000000
Te     11.455129860000000      3.968173380000000     11.805922310000000
Cd     18.328207769999999     18.518142460000000     12.741229740000000
Te     18.328207769999999     18.518142460000000     15.547152049999999
Cd     16.037181799999999     17.195417989999999     16.482459490000000
Te     16.037181799999999     17.195417989999999     19.288381800000000
Cd     11.455129860000000      3.968173380000000      9.000000000000000
Te     13.746155829999999      7.936346770000000     11.805922310000000
Cd     16.037181799999999      6.613622310000000     12.741229740000000
Te     16.037181799999999      6.613622310000000     15.547152049999999
Cd     13.746155829999999      5.290897840000000     16.482459490000000
Te     13.746155829999999      5.290897840000000     19.288381800000000
Cd     13.746155829999999      7.936346770000000      9.000000000000000
Te     16.037181799999999     11.904520150000000     11.805922310000000
Cd      2.291025970000000      6.613622310000000     12.741229740000000
Te      2.291025970000000      6.613622310000000     15.547152049999999
Cd     16.037181799999999      9.259071230000000     16.482459490000000
Te     16.037181799999999      9.259071230000000     19.288381800000000
Cd     16.037181799999999     11.904520150000000      9.000000000000000
Te     18.328207769999999     15.872693529999999     11.805922310000000
Cd      4.582051940000000     10.581795690000000     12.741229740000000
Te      4.582051940000000     10.581795690000000     15.547152049999999
Cd     18.328207769999999     13.227244610000000     16.482459490000000
Te     18.328207769999999     13.227244610000000     19.288381800000000
Cd     18.328207769999999     15.872693529999999      9.000000000000000
Te      0.000000000000000      0.000000000000000     11.805922310000000
Cd      6.873077910000000     14.549969070000000     12.741229740000000
Te      6.873077910000000     14.549969070000000     15.547152049999999
Cd      4.582051940000000     13.227244610000000     16.482459490000000
Te      4.582051940000000     13.227244610000000     19.288381800000000
Cu      3.436538960000000      3.306811150000000     21.888381800000001
Cu      1.718269480000000      1.653405580000000     21.888381800000001
Cu      1.718269480000000      1.653405580000000     26.816346670000001
Cu      3.436538960000000      3.306811150000000     26.816346670000001
Te      0.000000000000000      0.000000000000000     22.946444840000002
Te      0.000000000000000      0.000000000000000     25.758283630000001
Cu      3.436538960000000      3.306811150000000     29.135388970000001
Cu      1.718269480000000      1.653405580000000     29.135388970000001
Cu      1.718269480000000      1.653405580000000     34.063353839999998
Cu      3.436538960000000      3.306811150000000     34.063353839999998
Te      0.000000000000000      0.000000000000000     30.193452010000001
Te      0.000000000000000      0.000000000000000     33.005290799999997
Cu      4.582051940000000      7.274984540000000     21.888381800000001
Cu      2.863782460000000      5.621578960000000     21.888381800000001
Cu      2.863782460000000      5.621578960000000     26.816346670000001
Cu      4.582051940000000      7.274984540000000     26.816346670000001
Te      1.145512990000000      3.968173380000000     22.946444840000002
Te      1.145512990000000      3.968173380000000     25.758283630000001
Cu      4.582051940000000      7.274984540000000     29.135388970000001
Cu      2.863782460000000      5.621578960000000     29.135388970000001
Cu      2.863782460000000      5.621578960000000     34.063353839999998
Cu      4.582051940000000      7.274984540000000     34.063353839999998
Te      1.145512990000000      3.968173380000000     30.193452010000001
Te      1.145512990000000      3.968173380000000     33.005290799999997
Cu      5.727564930000000     11.243157920000000     21.888381800000001
Cu      4.009295450000000      9.589752340000000     21.888381800000001
Cu      4.009295450000000      9.589752340000000     26.816346670000001
Cu      5.727564930000000     11.243157920000000     26.816346670000001
Te      2.291025970000000      7.936346770000000     22.946444840000002
Te      2.291025970000000      7.936346770000000     25.758283630000001
Cu      5.727564930000000     11.243157920000000     29.135388970000001
Cu      4.009295450000000      9.589752340000000     29.135388970000001
Cu      4.009295450000000      9.589752340000000     34.063353839999998
Cu      5.727564930000000     11.243157920000000     34.063353839999998
Te      2.291025970000000      7.936346770000000     30.193452010000001
Te      2.291025970000000      7.936346770000000     33.005290799999997
Cu      6.873077910000000     15.211331299999999     21.888381800000001
Cu      5.154808440000000     13.557925729999999     21.888381800000001
Cu      5.154808440000000     13.557925729999999     26.816346670000001
Cu      6.873077910000000     15.211331299999999     26.816346670000001
Te      3.436538960000000     11.904520150000000     22.946444840000002
Te      3.436538960000000     11.904520150000000     25.758283630000001
Cu      6.873077910000000     15.211331299999999     29.135388970000001
Cu      5.154808440000000     13.557925729999999     29.135388970000001
Cu      5.154808440000000     13.557925729999999     34.063353839999998
Cu      6.873077910000000     15.211331299999999     34.063353839999998
Te      3.436538960000000     11.904520150000000     30.193452010000001
Te      3.436538960000000     11.904520150000000     33.005290799999997
Cu      7.445834410000000      4.298854500000000     21.888381800000001
Cu      5.727564930000000      2.645448920000000     21.888381800000001
Cu      5.727564930000000      2.645448920000000     26.816346670000001
Cu      7.445834410000000      4.298854500000000     26.816346670000001
Te      4.009295450000000      0.992043350000000     22.946444840000002
Te      4.009295450000000      0.992043350000000     25.758283630000001
Cu      7.445834410000000      4.298854500000000     29.135388970000001
Cu      5.727564930000000      2.645448920000000     29.135388970000001
Cu      5.727564930000000      2.645448920000000     34.063353839999998
Cu      7.445834410000000      4.298854500000000     34.063353839999998
Te      4.009295450000000      0.992043350000000     30.193452010000001
Te      4.009295450000000      0.992043350000000     33.005290799999997
Cu      8.591347389999999      8.267027880000001     21.888381800000001
Cu      6.873077910000000      6.613622310000000     21.888381800000001
Cu      6.873077910000000      6.613622310000000     26.816346670000001
Cu      8.591347389999999      8.267027880000001     26.816346670000001
Te      5.154808430000000      4.960216730000000     22.946444840000002
Te      5.154808430000000      4.960216730000000     25.758283630000001
Cu      8.591347389999999      8.267027880000001     29.135388970000001
Cu      6.873077910000000      6.613622310000000     29.135388970000001
Cu      6.873077910000000      6.613622310000000     34.063353839999998
Cu      8.591347389999999      8.267027880000001     34.063353839999998
Te      5.154808430000000      4.960216730000000     30.193452010000001
Te      5.154808430000000      4.960216730000000     33.005290799999997
Cu      9.736860380000000     12.235201269999999     21.888381800000001
Cu      8.018590900000000     10.581795690000000     21.888381800000001
Cu      8.018590900000000     10.581795690000000     26.816346670000001
Cu      9.736860380000000     12.235201269999999     26.816346670000001
Te      6.300321420000000      8.928390110000000     22.946444840000002
Te      6.300321420000000      8.928390110000000     25.758283630000001
Cu      9.736860380000000     12.235201269999999     29.135388970000001
Cu      8.018590900000000     10.581795690000000     29.135388970000001
Cu      8.018590900000000     10.581795690000000     34.063353839999998
Cu      9.736860380000000     12.235201269999999     34.063353839999998
Te      6.300321420000000      8.928390110000000     30.193452010000001
Te      6.300321420000000      8.928390110000000     33.005290799999997
Cu     10.882373360000001     16.203374650000001     21.888381800000001
Cu      9.164103880000001     14.549969070000000     21.888381800000001
Cu      9.164103880000001     14.549969070000000     26.816346670000001
Cu     10.882373360000001     16.203374650000001     26.816346670000001
Te      7.445834410000000     12.896563499999999     22.946444840000002
Te      7.445834410000000     12.896563499999999     25.758283630000001
Cu     10.882373360000001     16.203374650000001     29.135388970000001
Cu      9.164103880000001     14.549969070000000     29.135388970000001
Cu      9.164103880000001     14.549969070000000     34.063353839999998
Cu     10.882373360000001     16.203374650000001     34.063353839999998
Te      7.445834410000000     12.896563499999999     30.193452010000001
Te      7.445834410000000     12.896563499999999     33.005290799999997
Cu     11.455129850000001      5.290897840000000     21.888381800000001
Cu      9.736860380000000      3.637492270000000     21.888381800000001
Cu      9.736860380000000      3.637492270000000     26.816346670000001
Cu     11.455129850000001      5.290897840000000     26.816346670000001
Te      8.018590900000000      1.984086690000000     22.946444840000002
Te      8.018590900000000      1.984086690000000     25.758283630000001
Cu     11.455129850000001      5.290897840000000     29.135388970000001
Cu      9.736860380000000      3.637492270000000     29.135388970000001
Cu      9.736860380000000      3.637492270000000     34.063353839999998
Cu     11.455129850000001      5.290897840000000     34.063353839999998
Te      8.018590900000000      1.984086690000000     30.193452010000001
Te      8.018590900000000      1.984086690000000     33.005290799999997
Cu     12.600642840000001      9.259071230000000     21.888381800000001
Cu     10.882373360000001      7.605665650000000     21.888381800000001
Cu     10.882373360000001      7.605665650000000     26.816346670000001
Cu     12.600642840000001      9.259071230000000     26.816346670000001
Te      9.164103880000001      5.952260070000000     22.946444840000002
Te      9.164103880000001      5.952260070000000     25.758283630000001
Cu     12.600642840000001      9.259071230000000     29.135388970000001
Cu     10.882373360000001      7.605665650000000     29.135388970000001
Cu     10.882373360000001      7.605665650000000     34.063353839999998
Cu     12.600642840000001      9.259071230000000     34.063353839999998
Te      9.164103880000001      5.952260070000000     30.193452010000001
Te      9.164103880000001      5.952260070000000     33.005290799999997
Cu     13.746155829999999     13.227244610000000     21.888381800000001
Cu     12.027886349999999     11.573839030000000     21.888381800000001
Cu     12.027886349999999     11.573839030000000     26.816346670000001
Cu     13.746155829999999     13.227244610000000     26.816346670000001
Te     10.309616869999999      9.920433460000000     22.946444840000002
Te     10.309616869999999      9.920433460000000     25.758283630000001
Cu     13.746155829999999     13.227244610000000     29.135388970000001
Cu     12.027886349999999     11.573839030000000     29.135388970000001
Cu     12.027886349999999     11.573839030000000     34.063353839999998
Cu     13.746155829999999     13.227244610000000     34.063353839999998
Te     10.309616869999999      9.920433460000000     30.193452010000001
Te     10.309616869999999      9.920433460000000     33.005290799999997
Cu     14.891668810000001     17.195417989999999     21.888381800000001
Cu     13.173399330000001     15.542012420000001     21.888381800000001
Cu     13.173399330000001     15.542012420000001     26.816346670000001
Cu     14.891668810000001     17.195417989999999     26.816346670000001
Te     11.455129860000000     13.888606840000000     22.946444840000002
Te     11.455129860000000     13.888606840000000     25.758283630000001
Cu     14.891668810000001     17.195417989999999     29.135388970000001
Cu     13.173399330000001     15.542012420000001     29.135388970000001
Cu     13.173399330000001     15.542012420000001     34.063353839999998
Cu     14.891668810000001     17.195417989999999     34.063353839999998
Te     11.455129860000000     13.888606840000000     30.193452010000001
Te     11.455129860000000     13.888606840000000     33.005290799999997
Cu     15.464425300000000      6.282941190000000     21.888381800000001
Cu     13.746155829999999      4.629535610000000     21.888381800000001
Cu     13.746155829999999      4.629535610000000     26.816346670000001
Cu     15.464425300000000      6.282941190000000     26.816346670000001
Te     12.027886349999999      2.976130040000000     22.946444840000002
Te     12.027886349999999      2.976130040000000     25.758283630000001
Cu     15.464425300000000      6.282941190000000     29.135388970000001
Cu     13.746155829999999      4.629535610000000     29.135388970000001
Cu     13.746155829999999      4.629535610000000     34.063353839999998
Cu     15.464425300000000      6.282941190000000     34.063353839999998
Te     12.027886349999999      2.976130040000000     30.193452010000001
Te     12.027886349999999      2.976130040000000     33.005290799999997
Cu     16.609938289999999     10.251114570000000     21.888381800000001
Cu     14.891668810000001      8.597709000000000     21.888381800000001
Cu     14.891668810000001      8.597709000000000     26.816346670000001
Cu     16.609938289999999     10.251114570000000     26.816346670000001
Te     13.173399330000001      6.944303420000000     22.946444840000002
Te     13.173399330000001      6.944303420000000     25.758283630000001
Cu     16.609938289999999     10.251114570000000     29.135388970000001
Cu     14.891668810000001      8.597709000000000     29.135388970000001
Cu     14.891668810000001      8.597709000000000     34.063353839999998
Cu     16.609938289999999     10.251114570000000     34.063353839999998
Te     13.173399330000001      6.944303420000000     30.193452010000001
Te     13.173399330000001      6.944303420000000     33.005290799999997
Cu     17.755451279999999     14.219287960000001     21.888381800000001
Cu     16.037181799999999     12.565882380000000     21.888381800000001
Cu     16.037181799999999     12.565882380000000     26.816346670000001
Cu     17.755451279999999     14.219287960000001     26.816346670000001
Te     14.318912320000001     10.912476800000000     22.946444840000002
Te     14.318912320000001     10.912476800000000     25.758283630000001
Cu     17.755451279999999     14.219287960000001     29.135388970000001
Cu     16.037181799999999     12.565882380000000     29.135388970000001
Cu     16.037181799999999     12.565882380000000     34.063353839999998
Cu     17.755451279999999     14.219287960000001     34.063353839999998
Te     14.318912320000001     10.912476800000000     30.193452010000001
Te     14.318912320000001     10.912476800000000     33.005290799999997
Cu     18.900964259999999     18.187461339999999     21.888381800000001
Cu     17.182694779999999     16.534055760000001     21.888381800000001
Cu     17.182694779999999     16.534055760000001     26.816346670000001
Cu     18.900964259999999     18.187461339999999     26.816346670000001
Te     15.464425300000000     14.880650190000001     22.946444840000002
Te     15.464425300000000     14.880650190000001     25.758283630000001
Cu     18.900964259999999     18.187461339999999     29.135388970000001
Cu     17.182694779999999     16.534055760000001     29.135388970000001
Cu     17.182694779999999     16.534055760000001     34.063353839999998
Cu     18.900964259999999     18.187461339999999     34.063353839999998
Te     15.464425300000000     14.880650190000001     30.193452010000001
Te     15.464425300000000     14.880650190000001     33.005290799999997
