78
Lattice="16.0371817973109 3.968173383308748 0.0 4.58205194208883 15.872693533234992 0.0 0.0 0.0 28.28838179695913" Properties=species:S:1:pos:R:3:tags:I:1:region:S:1:fixed:L:1 pbc="T T F"
Cd       0.00000000       0.00000000       9.00000000        3 cdte_substrate  T
Te       2.29102597       3.96817338      11.80592231        3 cdte_substrate  T
Cd       4.58205194       2.64544892      12.74122974        2 cdte_substrate  F
Te       4.58205194       2.64544892      15.54715205        2 cdte_substrate  F
Cd       2.29102597       1.32272446      16.48245949        1 cdte_substrate  F
Te       2.29102597       1.32272446      19.28838180        1 interface_cdte_surface  F
Cd       2.29102597       3.96817338       9.00000000        3 cdte_substrate  T
Te       4.58205194       7.93634677      11.80592231        3 cdte_substrate  T
Cd       6.87307791       6.61362231      12.74122974        2 cdte_substrate  F
Te       6.87307791       6.61362231      15.54715205        2 cdte_substrate  F
Cd       4.58205194       5.29089784      16.48245949        1 cdte_substrate  F
Te       4.58205194       5.29089784      19.28838180        1 interface_cdte_surface  F
Cd       4.58205194       7.93634677       9.00000000        3 cdte_substrate  T
Te       6.87307791      11.90452015      11.80592231        3 cdte_substrate  T
Cd       9.16410388      10.58179569      12.74122974        2 cdte_substrate  F
Te       9.16410388      10.58179569      15.54715205        2 cdte_substrate  F
Cd       6.87307791       9.25907123      16.48245949        1 cdte_substrate  F
Te       6.87307791       9.25907123      19.28838180        1 interface_cdte_surface  F
Cd       6.87307791      11.90452015       9.00000000        3 cdte_substrate  T
Te       9.16410388      15.87269353      11.80592231        3 cdte_substrate  T
Cd      11.45512986      14.54996907      12.74122974        2 cdte_substrate  F
Te      11.45512986      14.54996907      15.54715205        2 cdte_substrate  F
Cd       9.16410388      13.22724461      16.48245949        1 cdte_substrate  F
Te       9.16410388      13.22724461      19.28838180        1 interface_cdte_surface  F
Cd       9.16410388      15.87269353       9.00000000        3 cdte_substrate  T
Te       6.87307791       3.96817338      11.80592231        3 cdte_substrate  T
Cd       9.16410388       2.64544892      12.74122974        2 cdte_substrate  F
Te       9.16410388       2.64544892      15.54715205        2 cdte_substrate  F
Cd      11.45512986      17.19541799      16.48245949        1 cdte_substrate  F
Te      11.45512986      17.19541799      19.28838180        1 interface_cdte_surface  F
Cd       6.87307791       3.96817338       9.00000000        3 cdte_substrate  T
Te       9.16410388       7.93634677      11.80592231        3 cdte_substrate  T
Cd      11.45512986       6.61362231      12.74122974        2 cdte_substrate  F
Te      11.45512986       6.61362231      15.54715205        2 cdte_substrate  F
Cd       9.16410388       5.29089784      16.48245949        1 cdte_substrate  F
Te       9.16410388       5.29089784      19.28838180        1 interface_cdte_surface  F
Cd       9.16410388       7.93634677       9.00000000        3 cdte_substrate  T
Te      11.45512986      11.90452015      11.80592231        3 cdte_substrate  T
Cd      13.74615583      10.58179569      12.74122974        2 cdte_substrate  F
Te      13.74615583      10.58179569      15.54715205        2 cdte_substrate  F
Cd      11.45512986       9.25907123      16.48245949        1 cdte_substrate  F
Te      11.45512986       9.25907123      19.28838180        1 interface_cdte_surface  F
Cd      11.45512986      11.90452015       9.00000000        3 cdte_substrate  T
Te      13.74615583      15.87269353      11.80592231        3 cdte_substrate  T
Cd      16.03718180      14.54996907      12.74122974        2 cdte_substrate  F
Te      16.03718180      14.54996907      15.54715205        2 cdte_substrate  F
Cd      13.74615583      13.22724461      16.48245949        1 cdte_substrate  F
Te      13.74615583      13.22724461      19.28838180        1 interface_cdte_surface  F
Cd      13.74615583      15.87269353       9.00000000        3 cdte_substrate  T
Te      11.45512986       3.96817338      11.80592231        3 cdte_substrate  T
Cd      18.32820777      18.51814246      12.74122974        2 cdte_substrate  F
Te      18.32820777      18.51814246      15.54715205        2 cdte_substrate  F
Cd      16.03718180      17.19541799      16.48245949        1 cdte_substrate  F
Te      16.03718180      17.19541799      19.28838180        1 interface_cdte_surface  F
Cd      11.45512986       3.96817338       9.00000000        3 cdte_substrate  T
Te      13.74615583       7.93634677      11.80592231        3 cdte_substrate  T
Cd      16.03718180       6.61362231      12.74122974        2 cdte_substrate  F
Te      16.03718180       6.61362231      15.54715205        2 cdte_substrate  F
Cd      13.74615583       5.29089784      16.48245949        1 cdte_substrate  F
Te      13.74615583       5.29089784      19.28838180        1 interface_cdte_surface  F
Cd      13.74615583       7.93634677       9.00000000        3 cdte_substrate  T
Te      16.03718180      11.90452015      11.80592231        3 cdte_substrate  T
Cd       2.29102597       6.61362231      12.74122974        2 cdte_substrate  F
Te       2.29102597       6.61362231      15.54715205        2 cdte_substrate  F
Cd      16.03718180       9.25907123      16.48245949        1 cdte_substrate  F
Te      16.03718180       9.25907123      19.28838180        1 interface_cdte_surface  F
Cd      16.03718180      11.90452015       9.00000000        3 cdte_substrate  T
Te      18.32820777      15.87269353      11.80592231        3 cdte_substrate  T
Cd       4.58205194      10.58179569      12.74122974        2 cdte_substrate  F
Te       4.58205194      10.58179569      15.54715205        2 cdte_substrate  F
Cd      18.32820777      13.22724461      16.48245949        1 cdte_substrate  F
Te      18.32820777      13.22724461      19.28838180        1 interface_cdte_surface  F
Cd      18.32820777      15.87269353       9.00000000        3 cdte_substrate  T
Te       0.00000000       0.00000000      11.80592231        3 cdte_substrate  T
Cd       6.87307791      14.54996907      12.74122974        2 cdte_substrate  F
Te       6.87307791      14.54996907      15.54715205        2 cdte_substrate  F
Cd       4.58205194      13.22724461      16.48245949        1 cdte_substrate  F
Te       4.58205194      13.22724461      19.28838180        1 interface_cdte_surface  F
