     149
 i =        1, E =     -3973.4950001749
 Cd        13.2245305421       14.4694535387       11.7699941838
 Cd        13.3547264531       11.6604722239       15.2801563134
 Cd        10.7994632879       15.2721297499       15.3739671326
 Cd        16.8616058573       16.8715033414       10.8853353049
 Cd        16.9432972269       13.9202203515       14.2266347435
 Cd        14.3859516689       17.8314924049       14.4919892444
 Cd        16.8718087996       11.0768273679       17.7304390146
 Cd        14.3906835724       14.8075272022       18.0616407844
 Cd        12.0819366966       18.6607738334       18.2484248188
 Cd        20.5535216027       16.4019188819       13.4436764405
 Cd        18.1004133957       20.1842114350       13.7006825011
 Cd        20.5154110993       13.5284741979       16.8435479638
 Cd        18.2298064349       17.3460254681       17.1191223443
 Cd        15.6892107067       21.0414061287       17.3410378156
 Cd        18.1074970223       14.3945402979       20.5458583214
 Cd        15.7451564793       18.0129283622       20.6470261169
 Cd        12.4917673172       11.3018999277        9.0278064517
 Cd         9.8932114518       15.4509147977        9.4420784028
 Cd        11.9380451822        8.6560036314       12.1728120653
 Cd         9.6411518850       11.6967091674       12.4849126147
 Cd         7.6175603277       16.1425016515       12.9659167810
 Cd         9.8473160878        9.4326924217       16.6499755827
 Cd         7.6167835426       13.0417665582       16.6259107992
 Cd        15.7229735032       13.4340961520        8.0918074994
 Cd        13.1175798526       17.5301002250        8.4051584416
 Cd        15.7478026313       10.3453241506       11.1897334478
 Cd        10.5451294349       18.6162115672       11.7650051863
 Cd        15.4755589058        7.8373219985       14.5850237716
 Cd         8.4713876865       19.1920917795       15.5168979252
 Cd        13.0922962064        8.7740427847       18.7704991640
 Cd        10.5040226405       12.2682825321       19.2882346985
 Cd         8.4530565808       16.0844295270       19.1911168357
 Cd        19.0745948350       15.5293221516        7.6083599450
 Cd        16.3869701770       19.7462943114        7.8862447191
 Cd        19.3696398733       12.6741440772       10.3721728793
 Cd        14.0973045928       20.9490892971       10.9358550738
 Cd        19.3397014727        9.8728682891       13.6563261902
 Cd        11.7513311736       21.8223318267       14.4761102988
 Cd        18.8801749593        7.6278918864       16.8771477783
 Cd         9.8582557762       22.0894216254       18.0024843320
 Cd        16.3351427601        8.6415155353       21.0513887047
 Cd        14.0791441541       11.8406340421       21.7305339546
 Cd        11.7024533719       15.4612105982       21.9877015364
 Cd         9.8561034920       18.9930957746       21.6639300252
 Cd        22.5641626450       15.0633478406       10.0600239472
 Cd        20.3300496118       19.1330197480       10.3122479441
 Cd        17.5653305660       22.8840417501       10.5569504702
 Cd        22.8013929964       12.4881716680       13.0773567012
 Cd        15.5215702289       23.9133517139       13.8088594795
 Cd        22.4753984336        9.9385941356       16.1347390545
 Cd        13.2721367172       24.4501351818       17.0433608426
 Cd        20.2668950357       10.8871439879       20.0916196443
 Cd        13.5227429492       22.0689187576       21.2527070744
 Cd        17.5233511617       11.7767702174       23.7277920528
 Cd        15.5064871495       15.1732152519       24.1720398873
 Cd        13.2047654956       18.3402089739       24.1916516165
 Cd        23.9799891881       18.7657688640       13.1875875918
 Cd        21.6652603468       22.3745754132       13.3997430941
 Cd        24.1764493294       16.1017166328       16.1473308754
 Cd        22.1353291593       19.9569477505       16.5283497320
 Cd        19.5027463618       23.4509078430       16.5637649668
 Cd        23.8901697716       13.6655196328       19.2842200559
 Cd        22.0686179799       17.1842534514       19.8329054829
 Cd        19.7261634755       20.8743043106       20.0777431243
 Cd        17.2975070311       24.0763140080       19.8247700553
 Cd        21.5126108447       14.6266725717       22.7875908254
 Cd        19.3425206772       18.0780428479       23.2535340441
 Cd        16.8288513823       21.6211470971       23.1389513464
 Cl        14.7117720573       23.5104958405       23.0231034779
 Cl        17.1954841053       24.8719063158       12.0058587466
 Cl        11.1672864551       16.1242604660        7.3853438239
 Cl        17.1461659007       13.5385747264       25.4441771665
 Cl         9.4407204307        9.4846941119       11.1664026398
 Cl        25.4771680750       14.2154126158       17.4338390174
 Cl         7.7349498396       18.1867696736       20.5902437518
 Cl        18.4331402208       25.3553007139       17.9760899328
 Cl        14.7158556929        7.0818043926       19.9827454113
 Cl        18.2280478238       19.9393144043       24.6215263596
 Cl        14.7846698677       25.7463224312       15.5158900045
 Cl        13.5609638712       12.4354741724        7.0494345659
 Cl        11.1139446471        7.5058892861       17.6395382529
 Cl         6.5123890285       14.9391465460       17.8433330809
 Cl        20.6498613730       16.1129380677       24.5651754931
 Cl        24.2229880904       10.9369221454       14.6528226895
 Cl        16.9339817237        6.2567538241       16.2256663449
 Cl        24.2841046870       13.7617712197       11.3151945493
 Cl        20.7931366819       24.4367607983       14.4786262151
 Cl         6.5176688934       17.6970043312       14.5931787313
 Cl        13.3120042213        6.8921289334       13.5813527759
 Cl        14.7654425246       18.4221077495        6.5433396481
 Cl        17.1304100708       14.7416987071        6.2775708125
 Cl        25.5193103512       17.0156074601       14.0749515290
 Cl        14.7287607475       17.0995706434       25.7498689927
 Cl         7.7341894122       20.9399639924       17.3339814739
 Te        14.8013773280       12.4946152694       13.0156639202
 Te        12.1281478199       16.5935154814       13.2605854608
 Te        12.1160627232       13.4375377455       17.0642730641
 Te        18.5541470396       14.9593714913       12.0857653195
 Te        15.8898057256       19.0635539333       12.3637127016
 Te        18.5243813331       11.9609616498       15.6188282855
 Te        15.9948166904       15.9736247547       15.9770999047
 Te        13.3963761288       19.9624631159       16.1136425413
 Te        15.8904849512       12.9145278717       19.6320748000
 Te        13.3671287899       16.7425279749       19.8656122574
 Te        19.9109575770       18.5590420690       15.1296607646
 Te        19.8704618580       15.5674510387       18.6744136395
 Te        17.4136044622       19.4263771211       18.8764854562
 Te        13.5351229762        8.9459249776        9.9345912435
 Te        10.9899654385       13.1399360702       10.4605420972
 Te         8.1994793516       17.2894938296       10.5415512515
 Te        11.1103536548       10.1997920661       14.3485564488
 Te         8.5148155931       13.7921629573       14.1153104394
 Te         8.1270125759       10.8645262476       18.2156320839
 Te        17.2812081693       11.3715546773        9.0418830125
 Te        14.7155863219       15.5698544614        9.6093736215
 Te        11.9598912080       19.7274964635        9.5948924543
 Te        17.2525989795        8.3808105436       12.5380068233
 Te         9.4509529027       20.6366880627       13.3812752270
 Te        14.7277776153        9.6049446470       16.6521342142
 Te         9.8348249775       17.3314206592       17.0995222600
 Te        11.9391854364       10.3272720280       20.7369832526
 Te         9.3960983542       14.2123135297       20.9852463691
 Te        21.0841925932       13.7741398047        8.1720912765
 Te        18.4606991981       18.0447477928        8.6142007990
 Te        15.6618408599       22.2358487682        8.7201473545
 Te        21.0792333291       10.8622574227       11.6764580079
 Te        13.2424358678       23.1309875953       12.4735926965
 Te        20.9850696180        7.8816552932       15.1501510936
 Te        10.7139343047       23.9819411065       16.2096005153
 Te        18.4299041261        9.0086672541       19.2671113687
 Te        11.1779255820       20.8536512452       20.0952434391
 Te        15.6166397313        9.8626683568       23.3776717747
 Te        13.2226689557       13.7333228581       23.6100355322
 Te        10.6274704714       17.5084726749       23.8384596998
 Te        22.3435898351       17.5379233003       11.3050384028
 Te        19.7649975800       21.5157542289       11.5643930502
 Te        22.2126028696       14.5861945162       14.8407260252
 Te        17.2518743703       22.3182565893       15.3288584531
 Te        22.2741849730       11.6066722288       18.3481942901
 Te        14.7831263009       23.2479583352       19.0080634286
 Te        19.7484731148       12.5274207216       22.2437147941
 Te        17.2771217362       16.3728360318       22.3665428893
 Te        14.7382375331       19.8802363677       22.5276978074
 Te        23.8919830630       21.1869404297       14.4335380882
 Te        23.8459743020       18.1989738283       17.8984106785
 Te        21.3454144811       22.1199981297       18.1200156805
 Te        23.7818937051       15.3323188768       21.4370477788
 Te        21.3179416164       19.1702395230       21.6589519143
 Te        18.8253389673       23.0099525475       21.8245278895
     149
 i =        2, E =     -3973.5064687137
 Cd        13.2215149186       14.4665379239       11.7716117730
 Cd        13.3604296850       11.6670458778       15.2832999490
 Cd        10.7959653579       15.2661907264       15.3689504597
 Cd        16.8679697795       16.8756273926       10.8797311450
 Cd        16.9426901996       13.9190198279       14.2254197014
 Cd        14.3860341839       17.8301913486       14.4929465558
 Cd        16.8785306424       11.0715319335       17.7360650403
 Cd        14.3907718077       14.8081182583       18.0597203845
 Cd        12.0830696375       18.6682395695       18.2548931409
 Cd        20.5571599444       16.4076155164       13.4364688205
 Cd        18.1063231672       20.1862856514       13.6938773057
 Cd        20.5182893992       13.5227283437       16.8494903076
 Cd        18.2294987331       17.3458023444       17.1202496667
 Cd        15.6872318656       21.0412799650       17.3435538191
 Cd        18.1141998738       14.3860692090       20.5495976929
 Cd        15.7463294998       18.0069978616       20.6407251531
 Cd        12.5096316933       11.2811918428        9.0216620267
 Cd         9.8823380241       15.4761425636        9.4390224144
 Cd        11.9467420592        8.6513097297       12.1570530129
 Cd         9.6277357648       11.6844575371       12.4841572944
 Cd         7.6171552841       16.1622224668       12.9533474246
 Cd         9.8322772260        9.4301107162       16.6776139033
 Cd         7.6170726017       13.0314284020       16.6475995870
 Cd        15.7322186013       13.4186382590        8.0951261375
 Cd        13.1084245720       17.5449632668        8.4113306113
 Cd        15.7411453794       10.3500522428       11.1938959829
 Cd        10.5443836254       18.6081199447       11.7673864145
 Cd        15.4815669521        7.8396823435       14.5683193633
 Cd         8.4761012539       19.2031831270       15.5020438155
 Cd        13.0823992627        8.7829205655       18.7820683520
 Cd        10.5051148922       12.2705095787       19.2772921560
 Cd         8.4587241688       16.0716642623       19.2043003645
 Cd        19.0832786794       15.5028792267        7.6043937552
 Cd        16.3659497437       19.7654656146        7.8865568902
 Cd        19.3705611673       12.6832611947       10.3715136602
 Cd        14.1056336209       20.9467462149       10.9343562085
 Cd        19.3377339612        9.8763827974       13.6658889347
 Cd        11.7530228040       21.8194864189       14.4838767502
 Cd        18.8862522161        7.6225201087       16.8531998287
 Cd         9.8543732594       22.1000680422       17.9826966328
 Cd        16.3146255176        8.6461596738       21.0700968783
 Cd        14.0872377259       11.8403800870       21.7259824206
 Cd        11.7061536435       15.4701845055       21.9829660042
 Cd         9.8534044605       18.9747323347       21.6784960854
 Cd        22.5599381598       15.0392965193       10.0461670968
 Cd        20.3323376778       19.1341923229       10.3095534884
 Cd        17.5412084333       22.8916170056       10.5456484987
 Cd        22.7910925157       12.4754866726       13.0667905577
 Cd        15.5053578830       23.9113902489       13.7999691696
 Cd        22.4699200459        9.9224034217       16.1134854430
 Cd        13.2541541237       24.4541143443       17.0234572133
 Cd        20.2689692866       10.8855596940       20.0924618742
 Cd        13.5174555197       22.0751265390       21.2661343215
 Cd        17.4975631421       11.7685501074       23.7341525866
 Cd        15.4898489030       15.1659896765       24.1703657641
 Cd        13.1836333746       18.3225632244       24.2056953239
 Cd        23.9892059951       18.7812815005       13.2087191628
 Cd        21.6841976453       22.3759138749       13.4189208039
 Cd        24.1766539690       16.1169774455       16.1599982749
 Cd        22.1306768288       19.9555716778       16.5187074577
 Cd        19.5152658420       23.4446220190       16.5757118204
 Cd        23.8990590158       13.6883999147       19.2961098071
 Cd        22.0652284368       17.1759174547       19.8346055531
 Cd        19.7154345451       20.8711718871       20.0779118393
 Cd        17.3224122583       24.0766771477       19.8368490628
 Cd        21.5282436377       14.6459380931       22.7839051066
 Cd        19.3519614544       18.0908615675       23.2439097115
 Cd        16.8421091595       21.6346465100       23.1379103623
 Cl        14.7063962540       23.5341305790       23.0349146526
 Cl        17.2106940123       24.9003828422       12.0034818542
 Cl        11.1615229929       16.1151111050        7.3544991301
 Cl        17.1605116253       13.5405389777       25.4724288542
 Cl         9.4212397865        9.4752853462       11.1492630143
 Cl        25.5044733352       14.2000017589       17.4275499733
 Cl         7.7061136247       18.2025450114       20.5924803345
 Cl        18.4322153691       25.3883763624       17.9711462770
 Cl        14.7173018778        7.0500510144       19.9827433506
 Cl        18.2314131292       19.9400206521       24.6572467215
 Cl        14.7941480305       25.7772258959       15.5194414510
 Cl        13.5483751450       12.4384101425        7.0184484450
 Cl        11.1076469705        7.4724000456       17.6377430020
 Cl         6.4807452072       14.9477290544       17.8395200170
 Cl        20.6525124504       16.1065622865       24.5969276762
 Cl        24.2556871641       10.9322993955       14.6557716542
 Cl        16.9268368127        6.2276034003       16.2376287631
 Cl        24.3165987629       13.7637366941       11.3110090247
 Cl        20.7954706707       24.4663794759       14.4670960885
 Cl         6.4853703776       17.6960142604       14.6024869723
 Cl        13.3024324954        6.8579595015       13.5881603616
 Cl        14.7672553048       18.4159152633        6.5118576994
 Cl        17.1244376422       14.7487166697        6.2472135597
 Cl        25.5469910365       17.0060708870       14.0611011761
 Cl        14.7376205513       17.1065280618       25.7813374074
 Cl         7.7045744248       20.9445176998       17.3483083076
 Te        14.8073163804       12.4868838340       13.0090517777
 Te        12.1245038243       16.6008894820       13.2564157592
 Te        12.1105534061       13.4353769470       17.0743934441
 Te        18.5567444384       14.9513707918       12.0822029661
 Te        15.8833604471       19.0679863867       12.3615218781
 Te        18.5263600640       11.9559347211       15.6109364583
 Te        15.9941863464       15.9731587193       15.9773356113
 Te        13.3913839565       19.9670180327       16.1066344217
 Te        15.8835133332       12.9129736831       19.6368671448
 Te        13.3599682782       16.7353121469       19.8712715021
 Te        19.9180637202       18.5625066656       15.1362768903
 Te        19.8760859361       15.5737594992       18.6763916407
 Te        17.4242149113       19.4309104171       18.8797499262
 Te        13.5407322795        8.9233401927        9.9105201244
 Te        10.9830426625       13.1350634857       10.4687212063
 Te         8.1763215297       17.3060018918       10.5249913404
 Te        11.1141192320       10.2078673568       14.3407385214
 Te         8.5172646888       13.7827497040       14.1055229772
 Te         8.1030361164       10.8521492315       18.2351181639
 Te        17.2948098766       11.3472882718        9.0202836723
 Te        14.7175895782       15.5692614829        9.6175338546
 Te        11.9410636282       19.7508742854        9.5755985391
 Te        17.2638846353        8.3567545567       12.5190454822
 Te         9.4308235750       20.6586681182       13.3630951489
 Te        14.7346163671        9.6105497455       16.6518741586
 Te         9.8443894146       17.3295400870       17.0974106665
 Te        11.9208107169       10.3110070250       20.7621594695
 Te         9.3763090166       14.1992095312       21.0101490969
 Te        21.0963294949       13.7554887669        8.1515890630
 Te        18.4688911004       18.0502019358        8.6094264366
 Te        15.6490473301       22.2558363262        8.7024265165
 Te        21.0933227262       10.8376776985       11.6555844947
 Te        13.2239668266       23.1545841145       12.4552360254
 Te        20.9988538255        7.8577412547       15.1355674732
 Te        10.6933675562       24.0056868327       16.1976123429
 Te        18.4420888019        9.0006690204       19.2742176899
 Te        11.1875229072       20.8621851876       20.0994778991
 Te        15.6029853556        9.8485242228       23.4010026109
 Te        13.2042237131       13.7174039999       23.6362767356
 Te        10.6050857993       17.5011315439       23.8620967363
 Te        22.3477068424       17.5444809675       11.2948987713
 Te        19.7710941034       21.5158121653       11.5554170832
 Te        22.2054042605       14.5884243981       14.8418592097
 Te        17.2507878554       22.3100264059       15.3302011650
 Te        22.2778729465       11.5984102542       18.3558232384
 Te        14.7756414364       23.2434797889       19.0162093304
 Te        19.7594475504       12.5164972753       22.2483734857
 Te        17.2810121018       16.3693923758       22.3588869062
 Te        14.7402592793       19.8849431968       22.5174393982
 Te        23.9166916866       21.2015178401       14.4416952217
 Te        23.8751530378       18.2147880266       17.9117283126
 Te        21.3735034464       22.1365436012       18.1331341345
 Te        23.8080966635       15.3420544877       21.4503272790
 Te        21.3456022956       19.1849522574       21.6723304817
 Te        18.8473058016       23.0319488524       21.8378208848
     149
 i =        3, E =     -3973.5128538417
 Cd        13.2124554470       14.4605684373       11.7702436831
 Cd        13.3646083287       11.6709571034       15.2862823708
 Cd        10.7877216504       15.2576043744       15.3603809051
 Cd        16.8778680698       16.8826020367       10.8682856254
 Cd        16.9432811161       13.9138621218       14.2201781748
 Cd        14.3821178997       17.8326091636       14.4912132377
 Cd        16.8909536017       11.0601489997       17.7461373789
 Cd        14.3867170523       14.8070296581       18.0617195016
 Cd        12.0826893686       18.6809579673       18.2648982098
 Cd        20.5663078869       16.4156269864       13.4238301594
 Cd        18.1160992750       20.1917869745       13.6821587895
 Cd        20.5266399410       13.5118685599       16.8581865184
 Cd        18.2329312110       17.3493829314       17.1238709748
 Cd        15.6828099957       21.0461333411       17.3505628008
 Cd        18.1262540443       14.3715816778       20.5578258957
 Cd        15.7476002995       18.0017075524       20.6372015043
 Cd        12.5267426156       11.2724942074        9.0075401780
 Cd         9.8798832645       15.4972582870        9.4274787773
 Cd        11.9583079667        8.6399772045       12.1440751992
 Cd         9.6108484698       11.6597364760       12.4742795690
 Cd         7.6111413486       16.1852503227       12.9491203926
 Cd         9.8288612799        9.4193996156       16.6975106049
 Cd         7.6118457422       13.0317247461       16.6678020387
 Cd        15.7384352630       13.3998953207        8.0831663991
 Cd        13.0953840537       17.5594523665        8.4031443563
 Cd        15.7441895566       10.3413487164       11.1875245367
 Cd        10.5367376906       18.6157701651       11.7614965502
 Cd        15.4856176028        7.8287133599       14.5466823889
 Cd         8.4675717478       19.2167372986       15.4902914069
 Cd        13.0692657226        8.7775857364       18.7956047788
 Cd        10.4995679937       12.2672081401       19.2843449206
 Cd         8.4506303671       16.0625267497       19.2189809927
 Cd        19.0816462507       15.4777591425        7.5932674847
 Cd        16.3405784967       19.7743431710        7.8792615924
 Cd        19.3744607551       12.6743678384       10.3646822700
 Cd        14.0988310825       20.9543878750       10.9285503427
 Cd        19.3388397047        9.8701044176       13.6594444827
 Cd        11.7451658210       21.8258243475       14.4780706571
 Cd        18.8851576181        7.6095105815       16.8246856740
 Cd         9.8415916303       22.1065693023       17.9625315691
 Cd        16.2909074370        8.6413985045       21.0785893977
 Cd        14.0800576180       11.8368260132       21.7318936326
 Cd        11.7007101217       15.4662206817       21.9892611046
 Cd         9.8421909160       18.9587090804       21.6851002163
 Cd        22.5669984918       15.0131770164       10.0406240855
 Cd        20.3356646738       19.1353578278       10.3059488096
 Cd        17.5195800405       22.9089157966       10.5429735271
 Cd        22.7958884355       12.4598525825       13.0547310821
 Cd        15.4916765475       23.9240036880       13.7902306145
 Cd        22.4754125821        9.9124604452       16.0870948726
 Cd        13.2469854472       24.4626629332       17.0011393452
 Cd        20.2716580951       10.8833352684       20.0933478097
 Cd        13.5175564631       22.0913492532       21.2910726059
 Cd        17.4754507538       11.7714923202       23.7482220326
 Cd        15.4752165919       15.1586370497       24.1835798496
 Cd        13.1768697536       18.3063350137       24.2222957361
 Cd        24.0058616717       18.7852580931       13.2309105688
 Cd        21.6970773826       22.3882502794       13.4401331158
 Cd        24.1916541558       16.1280858788       16.1698323448
 Cd        22.1374473580       19.9604771957       16.5230429212
 Cd        19.5316320042       23.4541045115       16.5875495315
 Cd        23.9156998355       13.7104943497       19.2966761551
 Cd        22.0743290009       17.1815531040       19.8403498110
 Cd        19.7215134739       20.8745981648       20.0845020083
 Cd        17.3444217970       24.0838486522       19.8365691392
 Cd        21.5416182332       14.6712962106       22.7893545728
 Cd        19.3667870332       18.1097921177       23.2462565959
 Cd        16.8599774757       21.6463000111       23.1432200121
 Cl        14.7006665304       23.5540638554       23.0448331677
 Cl        17.2226205690       24.9179116864       12.0023258851
 Cl        11.1586030248       16.1079636530        7.3352796398
 Cl        17.1712567727       13.5421587273       25.4889400884
 Cl         9.4038327030        9.4680732776       11.1352927660
 Cl        25.5205977905       14.1884482783       17.4229733902
 Cl         7.6886826379       18.2148401314       20.5932121948
 Cl        18.4304704573       25.4092824953       17.9670721264
 Cl        14.7197718878        7.0305508058       19.9817059509
 Cl        18.2336607527       19.9400147277       24.6852124797
 Cl        14.8014017995       25.7964269933       15.5232147090
 Cl        13.5399019380       12.4419284516        6.9987446580
 Cl        11.1034424205        7.4505005781       17.6353415496
 Cl         6.4608555846       14.9534389551       17.8348066446
 Cl        20.6541136291       16.0989723609       24.6189732519
 Cl        24.2769357610       10.9302769229       14.6593547251
 Cl        16.9222213451        6.2070158749       16.2492081191
 Cl        24.3375218411       13.7670898232       11.3087610821
 Cl        20.7959290495       24.4846018557       14.4578580514
 Cl         6.4638689604       17.6935165140       14.6098352422
 Cl        13.2945500505        6.8304762381       13.5944133496
 Cl        14.7701578336       18.4106985794        6.4916937555
 Cl        17.1204433839       14.7550998368        6.2278246896
 Cl        25.5637140317       16.9993035874       14.0502592373
 Cl        14.7436603692       17.1122379696       25.8010959327
 Cl         7.6855895368       20.9466100952       17.3600417330
 Te        14.8117141833       12.4857103928       13.0072217814
 Te        12.1243683073       16.6027719264       13.2560211555
 Te        12.1087402397       13.4365366709       17.0788795394
 Te        18.5582852604       14.9508976724       12.0821052152
 Te        15.8831864889       19.0680354658       12.3619396545
 Te        18.5270946974       11.9558447329       15.6107991086
 Te        15.9944114576       15.9722507546       15.9770281159
 Te        13.3901318179       19.9665972388       16.1042730504
 Te        15.8834008494       12.9129379381       19.6370012338
 Te        13.3566026905       16.7312019314       19.8710919779
 Te        19.9191964519       18.5622565133       15.1376036032
 Te        19.8769205626       15.5737648491       18.6766209404
 Te        17.4282640740       19.4305468531       18.8783276639
 Te        13.5499946777        8.8975590524        9.8892308341
 Te        10.9813535615       13.1359262267       10.4615089890
 Te         8.1531550034       17.3260370596       10.5089760202
 Te        11.1123288693       10.2031186679       14.3484875657
 Te         8.5080065791       13.7870862780       14.1095744131
 Te         8.0794917789       10.8401666272       18.2584642610
 Te        17.3107143769       11.3244462911        9.0055269407
 Te        14.7181360599       15.5694516394        9.6182270405
 Te        11.9242447351       19.7749668877        9.5645200860
 Te        17.2764809793        8.3411927102       12.5001178572
 Te         9.4185047753       20.6786917687       13.3434367923
 Te        14.7383622633        9.6106033737       16.6539715737
 Te         9.8460152920       17.3298002354       17.0969850130
 Te        11.9033793407       10.3035095890       20.7860578136
 Te         9.3656699448       14.1839195980       21.0332808609
 Te        21.1088506145       13.7315939545        8.1285280645
 Te        18.4666941745       18.0497731285        8.5934981287
 Te        15.6314821029       22.2793052532        8.6831417305
 Te        21.0973941084       10.8141852983       11.6357052847
 Te        13.2039662810       23.1692451801       12.4372198414
 Te        21.0098661851        7.8313106187       15.1177116345
 Te        10.6713375957       24.0279126171       16.1826213528
 Te        18.4420516742        8.9828731179       19.2818812735
 Te        11.1768935746       20.8618602575       20.0989745415
 Te        15.5843165593        9.8341292299       23.4270117191
 Te        13.1838632193       13.7012167885       23.6538782178
 Te        10.5821811272       17.4904322517       23.8862123065
 Te        22.3636028973       17.5424734131       11.2890735841
 Te        19.7744092438       21.5302247315       11.5524448828
 Te        22.2044705020       14.5892342489       14.8417363958
 Te        17.2507108899       22.3094960820       15.3290589569
 Te        22.2929572857       11.5936534824       18.3543878056
 Te        14.7768833761       23.2502732495       19.0137175517
 Te        19.7646687473       12.5106752458       22.2660253537
 Te        17.2832971766       16.3644616700       22.3581209694
 Te        14.7387266497       19.8795041148       22.5240416283
 Te        23.9439756150       21.2186085162       14.4538418029
 Te        23.8950618696       18.2341909250       17.9270786744
 Te        21.4001197020       22.1445728544       18.1462847381
 Te        23.8348768532       15.3557884150       21.4664791387
 Te        21.3709503361       19.1986422868       21.6782107264
 Te        18.8724905000       23.0498587162       21.8535881923
     149
 i =        4, E =     -3973.5161727980
 Cd        13.2024279865       14.4555400178       11.7648945225
 Cd        13.3664992916       11.6696892458       15.2899654192
 Cd        10.7751837736       15.2507883755       15.3537838949
 Cd        16.8869691982       16.8902160818       10.8519547671
 Cd        16.9458395741       13.9112997595       14.2169893388
 Cd        14.3799070649       17.8340443056       14.4896039989
 Cd        16.9041771221       11.0425331041       17.7597806923
 Cd        14.3846692977       14.8054152519       18.0635218181
 Cd        12.0775239854       18.6941538934       18.2754688577
 Cd        20.5809149668       16.4228185150       13.4084496324
 Cd        18.1272646305       20.2019924083       13.6684707836
 Cd        20.5409218635       13.4988070622       16.8672373366
 Cd        18.2359226030       17.3500987294       17.1252081199
 Cd        15.6787315099       21.0551171087       17.3567079773
 Cd        18.1407562459       14.3550316509       20.5713844964
 Cd        15.7485163800       17.9966909655       20.6393431969
 Cd        12.5417779350       11.2679777200        8.9939703928
 Cd         9.8774040317       15.5183194433        9.4156553818
 Cd        11.9688645604        8.6294588673       12.1431542201
 Cd         9.5958708023       11.6387545177       12.4645730787
 Cd         7.6032401780       16.2052479046       12.9478506121
 Cd         9.8224969206        9.4096437543       16.7217224548
 Cd         7.6042455280       13.0323613209       16.6874697035
 Cd        15.7421823715       13.3855072504        8.0678415563
 Cd        13.0834207537       17.5707616147        8.3910135148
 Cd        15.7519341562       10.3251634459       11.1737860910
 Cd        10.5244338994       18.6298500180       11.7499946949
 Cd        15.4849482740        7.8126675668       14.5305955599
 Cd         8.4536351325       19.2280121899       15.4829895898
 Cd        13.0561009147        8.7663347915       18.8083132165
 Cd        10.4875351781       12.2583612893       19.3002702435
 Cd         8.4371651016       16.0564103776       19.2323257951
 Cd        19.0793490075       15.4531974205        7.5817288961
 Cd        16.3152692255       19.7819686106        7.8706248742
 Cd        19.3818332670       12.6599496588       10.3545716742
 Cd        14.0869494717       20.9671511916       10.9198095788
 Cd        19.3443330016        9.8593826780       13.6470745705
 Cd        11.7324439971       21.8384702215       14.4659767050
 Cd        18.8796958058        7.5960721294       16.8026723989
 Cd         9.8266586969       22.1110875378       17.9467460514
 Cd        16.2668804311        8.6358654219       21.0884678852
 Cd        14.0674724754       11.8299496730       21.7435953082
 Cd        11.6893429742       15.4566847763       22.0048464603
 Cd         9.8283413944       18.9440026672       21.6922276156
 Cd        22.5754659009       14.9888856103       10.0353375031
 Cd        20.3367001759       19.1363302603       10.3030815182
 Cd        17.5001036200       22.9270620783       10.5411264525
 Cd        22.8060352455       12.4445192670       13.0441123235
 Cd        15.4809959711       23.9407179912       13.7815505431
 Cd        22.4833168596        9.9038844561       16.0627433345
 Cd        13.2409308674       24.4709514597       16.9796469142
 Cd        20.2724407016       10.8818597881       20.0937780165
 Cd        13.5184810872       22.1065003121       21.3133962801
 Cd        17.4524432542       11.7735611410       23.7632275592
 Cd        15.4625999774       15.1511975183       24.2007727317
 Cd        13.1675562260       18.2898127511       24.2394913292
 Cd        24.0233140963       18.7874649914       13.2501565864
 Cd        21.7076925662       22.4011128359       13.4604560265
 Cd        24.2098078411       16.1367757033       16.1769634871
 Cd        22.1512606264       19.9683152163       16.5319706058
 Cd        19.5458609821       23.4672720816       16.5962624738
 Cd        23.9331365814       13.7312856648       19.2957987522
 Cd        22.0907357309       17.1907554525       19.8469371253
 Cd        19.7375719547       20.8839959030       20.0938833252
 Cd        17.3634430509       24.0908027509       19.8340858268
 Cd        21.5501820938       14.6942953709       22.7979482507
 Cd        19.3779689434       18.1268434801       23.2566396670
 Cd        16.8724357170       21.6471342820       23.1517704575
 Cl        14.6974509483       23.5694136681       23.0536658282
 Cl        17.2293855616       24.9286387725       12.0040866661
 Cl        11.1587243876       16.1046173627        7.3244056096
 Cl        17.1767641434       13.5458566553       25.4978223155
 Cl         9.3914162177        9.4610888136       11.1246558562
 Cl        25.5296624029       14.1824855334       17.4179252691
 Cl         7.6791251623       18.2203861256       20.5915800412
 Cl        18.4302674350       25.4207639603       17.9635860632
 Cl        14.7195893069        7.0203742643       19.9789924530
 Cl        18.2356943012       19.9398581691       24.7024861544
 Cl        14.8069908784       25.8068983366       15.5246650997
 Cl        13.5364300406       12.4450081049        6.9870486606
 Cl        11.1018705168        7.4377333345       17.6347318390
 Cl         6.4511641075       14.9587766261       17.8330867718
 Cl        20.6531661485       16.0952711723       24.6318961896
 Cl        24.2898203006       10.9308843703       14.6602970590
 Cl        16.9169334477        6.1950011052       16.2564062606
 Cl        24.3499979486       13.7681962480       11.3096548952
 Cl        20.7942975635       24.4957277696       14.4536959713
 Cl         6.4520853613       17.6934357601       14.6163075853
 Cl        13.2900189475        6.8122321818       13.5985309545
 Cl        14.7703723398       18.4054076503        6.4801510424
 Cl        17.1157647036       14.7581129894        6.2166807694
 Cl        25.5732697065       16.9932059015       14.0448037348
 Cl        14.7476848706       17.1144726518       25.8122266758
 Cl         7.6742226646       20.9453944492       17.3661184841
 Te        14.8112408026       12.4822978136       13.0027185609
 Te        12.1205463192       16.6029456183       13.2529206325
 Te        12.1037441953       13.4363347322       17.0799386641
 Te        18.5626650618       14.9522455996       12.0777902484
 Te        15.8855170462       19.0703191360       12.3585268965
 Te        18.5303802372       11.9524020498       15.6135277076
 Te        15.9956833172       15.9713858310       15.9760324470
 Te        13.3876844437       19.9699783609       16.1044947942
 Te        15.8867232478       12.9098456424       19.6388013838
 Te        13.3526146397       16.7315576629       19.8725616375
 Te        19.9226913957       18.5636367409       15.1350233331
 Te        19.8815017528       15.5705956116       18.6798612945
 Te        17.4294771968       19.4338861009       18.8799130532
 Te        13.5554784225        8.8828818985        9.8721067629
 Te        10.9777151783       13.1338881796       10.4467048466
 Te         8.1407749976       17.3375073179       10.4971047724
 Te        11.1078866327       10.1883361280       14.3479155819
 Te         8.4938165320       13.7934478461       14.1133186235
 Te         8.0696992230       10.8309527835       18.2692009120
 Te        17.3192536458       11.3081067569        8.9927318147
 Te        14.7163515462       15.5684433316        9.6063545721
 Te        11.9123186444       19.7898828920        9.5544571321
 Te        17.2852894344        8.3286619617       12.4848364856
 Te         9.4071122852       20.6921012900       13.3315139209
 Te        14.7386294786        9.5983037879       16.6553854085
 Te         9.8368418823       17.3329099574       17.0985284281
 Te        11.8908339148       10.2961097508       20.8003760301
 Te         9.3568884074       14.1753447215       21.0474946982
 Te        21.1177252893       13.7155897283        8.1132237465
 Te        18.4632250671       18.0485119849        8.5743863417
 Te        15.6195477802       22.2948787791        8.6697213310
 Te        21.1030206950       10.7980497501       11.6235816940
 Te        13.1916826548       23.1817262934       12.4265682028
 Te        21.0191121349        7.8138179431       15.1017934923
 Te        10.6599381315       24.0429635587       16.1716478984
 Te        18.4408788247        8.9608456173       19.2845878318
 Te        11.1606192281       20.8643739660       20.0984707773
 Te        15.5723044449        9.8254559667       23.4421320078
 Te        13.1708637974       13.6921018729       23.6674942999
 Te        10.5730351736       17.4849157976       23.9004776347
 Te        22.3836806064       17.5387653132       11.2844653486
 Te        19.7783865243       21.5482690069       11.5502852010
 Te        22.2149137595       14.5875894730       14.8395794451
 Te        17.2539057922       22.3212946211       15.3269927028
 Te        22.3119113261       11.5891787687       18.3499536159
 Te        14.7800664496       23.2649258046       19.0121031174
 Te        19.7716791050       12.5089479539       22.2869041697
 Te        17.2875842272       16.3619911495       22.3700824829
 Te        14.7424314954       19.8821375753       22.5403077247
 Te        23.9626934248       21.2299962160       14.4628220352
 Te        23.9104914767       18.2459040607       17.9360320116
 Te        21.4161936987       22.1525340653       18.1561485609
 Te        23.8554352486       15.3663380938       21.4761071494
 Te        21.3895949293       19.2104033553       21.6840879372
 Te        18.8890559055       23.0645364257       21.8611666103
     149
 i =        5, E =     -3973.5175980561
 Cd        13.1964198298       14.4533411349       11.7558334961
 Cd        13.3650109404       11.6613520886       15.2915921688
 Cd        10.7637661285       15.2506175547       15.3518921934
 Cd        16.8893110565       16.8934494174       10.8370211219
 Cd        16.9486764923       13.9090651018       14.2142359940
 Cd        14.3785347579       17.8356538638       14.4875946443
 Cd        16.9102916484       11.0248287952       17.7684583175
 Cd        14.3838730174       14.8038632475       18.0649286226
 Cd        12.0688030720       18.7021321347       18.2802587272
 Cd        20.5957498640       16.4245669869       13.3986142226
 Cd        18.1344464153       20.2146199447       13.6604234854
 Cd        20.5563549091       13.4905538365       16.8706928187
 Cd        18.2391585082       17.3503091740       17.1260241023
 Cd        15.6782528966       21.0661243629       17.3582849677
 Cd        18.1510970810       14.3467256707       20.5858810684
 Cd        15.7501824953       17.9951084464       20.6485187090
 Cd        12.5483865289       11.2677425948        8.9876971635
 Cd         9.8791960403       15.5241954178        9.4091169583
 Cd        11.9785945565        8.6221084740       12.1424796072
 Cd         9.5891867109       11.6295744628       12.4581481689
 Cd         7.5979055457       16.2152413523       12.9473737121
 Cd         9.8246318615        9.4028553009       16.7278553413
 Cd         7.5991534702       13.0348782190       16.6948878196
 Cd        15.7433732488       13.3794836308        8.0580648142
 Cd        13.0779950729       17.5738937877        8.3824810337
 Cd        15.7579699751       10.3104280693       11.1611793852
 Cd        10.5145392681       18.6412048736       11.7405958182
 Cd        15.4838941115        7.8000292399       14.5228632460
 Cd         8.4433763714       19.2333757766       15.4807505090
 Cd        13.0496739869        8.7563816635       18.8129942403
 Cd        10.4772298891       12.2510732079       19.3141775374
 Cd         8.4276245485       16.0556716586       19.2378613272
 Cd        19.0770129379       15.4414011257        7.5759418239
 Cd        16.3028242398       19.7840447981        7.8652603774
 Cd        19.3872183517       12.6484421384       10.3462744349
 Cd        14.0771927863       20.9778703037       10.9129416141
 Cd        19.3496486672        9.8498595647       13.6375147917
 Cd        11.7222111322       21.8492245098       14.4558258451
 Cd        18.8781504038        7.5883277541       16.7897996978
 Cd         9.8176007908       22.1144871184       17.9393693188
 Cd        16.2558841879        8.6317248225       21.0902601481
 Cd        14.0574920362       11.8247973513       21.7528375373
 Cd        11.6795671597       15.4486451296       22.0188463102
 Cd         9.8200562960       18.9400642275       21.6938987032
 Cd        22.5811166943       14.9762847591       10.0332367462
 Cd        20.3362481899       19.1357027780       10.3031760292
 Cd        17.4914222916       22.9378331985       10.5407428433
 Cd        22.8150457516       12.4370478000       13.0398213863
 Cd        15.4779455559       23.9513452661       13.7783371319
 Cd        22.4884983031        9.8994298434       16.0512276133
 Cd        13.2413812321       24.4744891250       16.9718704737
 Cd        20.2723860322       10.8824562342       20.0921172006
 Cd        13.5200378113       22.1149258177       21.3209400668
 Cd        17.4429749918       11.7770288226       23.7698837786
 Cd        15.4585788195       15.1485512312       24.2124763158
 Cd        13.1690414627       18.2861513154       24.2470006567
 Cd        24.0327618338       18.7880890972       13.2588326404
 Cd        21.7119515915       22.4074873119       13.4708884217
 Cd        24.2209566630       16.1396626135       16.1782625024
 Cd        22.1629742579       19.9755421885       16.5399211145
 Cd        19.5524862960       23.4763635347       16.5996750420
 Cd        23.9423960425       13.7401541349       19.2939914842
 Cd        22.1041447746       17.1984599651       19.8521738024
 Cd        19.7521396772       20.8939104975       20.1014429341
 Cd        17.3708412322       24.0941336879       19.8314281514
 Cd        21.5559761400       14.7078652657       22.8024672585
 Cd        19.3841625860       18.1360588567       23.2656246816
 Cd        16.8830147629       21.6467849940       23.1570929811
 Cl        14.6976341579       23.5775989708       23.0595424349
 Cl        17.2303366636       24.9338293257       12.0071470474
 Cl        11.1604503134       16.1054299322        7.3198820682
 Cl        17.1767406257       13.5498618348       25.5009824219
 Cl         9.3863319171        9.4556299900       11.1187679647
 Cl        25.5338007406       14.1822689123       17.4132895713
 Cl         7.6754719603       18.2196180077       20.5898709801
 Cl        18.4323581767       25.4247568294       17.9611237105
 Cl        14.7165214108        7.0174489873       19.9764064160
 Cl        18.2380819751       19.9405313666       24.7097196273
 Cl        14.8099851589       25.8107543627       15.5232922208
 Cl        13.5375342869       12.4466409796        6.9815381158
 Cl        11.1019226267        7.4325372618       17.6363275936
 Cl         6.4492009330       14.9620311373       17.8349399255
 Cl        20.6510048356       16.0967122061       24.6365810776
 Cl        24.2958796604       10.9325131247       14.6581950650
 Cl        16.9121238669        6.1908421745       16.2576351588
 Cl        24.3548405595       13.7662099717       11.3120909445
 Cl        20.7923796846       24.5007455451       14.4546341704
 Cl         6.4482589710       17.6958225164       14.6200979711
 Cl        13.2892611656        6.8035191191       13.5994003876
 Cl        14.7674924885       18.4015627494        6.4757927771
 Cl        17.1117565708       14.7572983476        6.2123963916
 Cl        25.5775102364       16.9890399856       14.0448333112
 Cl        14.7491167740       17.1132439757       25.8163232637
 Cl         7.6690754791       20.9431489138       17.3664898224
 Te        14.8094997083       12.4775737561       12.9978845852
 Te        12.1139581824       16.6038681877       13.2486084416
 Te        12.0969328429       13.4336941657       17.0811069089
 Te        18.5679862145       14.9533984949       12.0705740632
 Te        15.8876594371       19.0748934427       12.3524656212
 Te        18.5347414319       11.9461688794       15.6170601751
 Te        15.9965555053       15.9706250120       15.9753399127
 Te        13.3834930071       19.9757416056       16.1049387326
 Te        15.8900004420       12.9042481737       19.6439393688
 Te        13.3476466570       16.7331134670       19.8771742288
 Te        19.9283487231       18.5664961094       15.1309716606
 Te        19.8883837579       15.5667938223       18.6852539056
 Te        17.4304239416       19.4381508188       18.8838011313
 Te        13.5522450748        8.8799548862        9.8684625367
 Te        10.9693304516       13.1320528163       10.4323425198
 Te         8.1362770540       17.3410883275       10.4947712290
 Te        11.0985872611       10.1751661312       14.3526602089
 Te         8.4798119806       13.7944974159       14.1154676147
 Te         8.0655105557       10.8293389485       18.2739010470
 Te        17.3211054600       11.3037016665        8.9831125621
 Te        14.7143238099       15.5683072509        9.5932812838
 Te        11.9077926147       19.7942210401        9.5462022504
 Te        17.2869055114        8.3191910453       12.4807389014
 Te         9.3973912493       20.6963351632       13.3298171739
 Te        14.7370805562        9.5851193758       16.6581743937
 Te         9.8251273649       17.3357594763       17.1015963053
 Te        11.8854150157       10.2888808719       20.8051763173
 Te         9.3493604785       14.1742671778       21.0522443277
 Te        21.1219024306       13.7091695988        8.1076258789
 Te        18.4630051964       18.0490307103        8.5595903692
 Te        15.6150554028       22.3010141106        8.6648976538
 Te        21.1104173783       10.7921276355       11.6193122126
 Te        13.1889441500       23.1908605220       12.4231347977
 Te        21.0200150970        7.8079432868       15.0957960280
 Te        10.6560040178       24.0464825063       16.1679480763
 Te        18.4406908784        8.9457430240       19.2900968509
 Te        11.1472598353       20.8690721270       20.1034570837
 Te        15.5655073342        9.8223855551       23.4480302350
 Te        13.1667197499       13.6885540072       23.6763064563
 Te        10.5695670105       17.4823535761       23.9046906104
 Te        22.3970715319       17.5386751134       11.2782986495
 Te        19.7831382297       21.5606190603       11.5458590528
 Te        22.2271687078       14.5852117997       14.8371435597
 Te        17.2569766134       22.3341636223       15.3242480846
 Te        22.3249456682       11.5840937934       18.3499828676
 Te        14.7794659069       23.2807029467       19.0135990153
 Te        19.7761080222       12.5042267123       22.3018230997
 Te        17.2905871660       16.3597126323       22.3839002762
 Te        14.7405613514       19.8828099346       22.5574941963
 Te        23.9694374574       21.2335690238       14.4665219900
 Te        23.9206997745       18.2484701439       17.9374249064
 Te        21.4211886318       22.1599300739       18.1585113315
 Te        23.8617600390       15.3706288894       21.4807378518
 Te        21.3963709493       19.2145593073       21.6914691479
 Te        18.8892315048       23.0689659762       21.8647419168
     149
 i =        6, E =     -3973.5186536620
 Cd        13.1910308017       14.4521272088       11.7434559754
 Cd        13.3601466122       11.6474579922       15.2928526845
 Cd        10.7509077863       15.2538333205       15.3530382985
 Cd        16.8885977416       16.8952692738       10.8205221554
 Cd        16.9530565923       13.9046846991       14.2098111598
 Cd        14.3761454587       17.8392027778       14.4836093101
 Cd        16.9129802825       11.0050125852       17.7766680210
 Cd        14.3814210612       14.8009188039       18.0687194898
 Cd        12.0563569409       18.7079995280       18.2834194747
 Cd        20.6131688767       16.4237497050       13.3906310736
 Cd        18.1408377686       20.2306027110       13.6538040823
 Cd        20.5745799042       13.4840825025       16.8713199921
 Cd        18.2449945099       17.3513558025       17.1278211554
 Cd        15.6794495026       21.0801595812       17.3577727524
 Cd        18.1600938521       14.3405780698       20.6031870884
 Cd        15.7511878875       17.9951153904       20.6640465519
 Cd        12.5497410781       11.2725375451        8.9840094297
 Cd         9.8800548228       15.5269402707        9.4048404333
 Cd        11.9838518064        8.6169290260       12.1500765709
 Cd         9.5859042844       11.6241249252       12.4538692906
 Cd         7.5931832861       16.2193590918       12.9495709835
 Cd         9.8237676580        9.3987393369       16.7339481198
 Cd         7.5946998856       13.0368146546       16.6986831906
 Cd        15.7425853871       13.3783153852        8.0494047277
 Cd        13.0751315525       17.5738874799        8.3746565596
 Cd        15.7648266301       10.2951127142       11.1474396906
 Cd        10.5043326543       18.6531502907       11.7309617794
 Cd        15.4817004258        7.7871159557       14.5215131039
 Cd         8.4339036436       19.2350724379       15.4825716414
 Cd        13.0451550005        8.7470092216       18.8149837636
 Cd        10.4652185857       12.2434711297       19.3298729595
 Cd         8.4193220387       16.0570882570       19.2407149244
 Cd        19.0742698442       15.4357175097        7.5728224260
 Cd        16.2956755165       19.7835666362        7.8611634305
 Cd        19.3926784766       12.6368708352       10.3379978965
 Cd        14.0669412149       20.9890632445       10.9058334627
 Cd        19.3547283010        9.8402358595       13.6279856960
 Cd        11.7114140651       21.8604418227       14.4451396402
 Cd        18.8745703580        7.5838043119       16.7839701047
 Cd         9.8106875417       22.1157748973       17.9382330632
 Cd        16.2486898217        8.6292797276       21.0911527432
 Cd        14.0472371119       11.8193427537       21.7624829216
 Cd        11.6682772450       15.4408159649       22.0348511446
 Cd         9.8139404699       18.9396820207       21.6956273339
 Cd        22.5860309375       14.9694125443       10.0335323330
 Cd        20.3333592783       19.1339938248       10.3047746949
 Cd        17.4877677057       22.9458050311       10.5413057412
 Cd        22.8246908036       12.4335105199       13.0388489987
 Cd        15.4783474549       23.9598636226       13.7774986997
 Cd        22.4930803417        9.8975868096       16.0450186201
 Cd        13.2423363376       24.4766916490       16.9684441438
 Cd        20.2698239913       10.8844530865       20.0901478724
 Cd        13.5227363536       22.1191812877       21.3241820305
 Cd        17.4367249565       11.7795753837       23.7725063959
 Cd        15.4568070424       15.1472544135       24.2232717661
 Cd        13.1680078163       18.2846700686       24.2530001331
 Cd        24.0381965661       18.7866393020       13.2623496854
 Cd        21.7121458380       22.4110343568       13.4763209949
 Cd        24.2299343026       16.1394879983       16.1760628693
 Cd        22.1748648262       19.9829580729       16.5486473592
 Cd        19.5548170722       23.4850803027       16.5996284549
 Cd        23.9482630667       13.7442587568       19.2916666926
 Cd        22.1172150312       17.2075216557       19.8570750661
 Cd        19.7677777471       20.9045457580       20.1090673311
 Cd        17.3717184398       24.0967068692       19.8274605757
 Cd        21.5562732067       14.7148138366       22.8064032840
 Cd        19.3865434452       18.1397956055       23.2750771881
 Cd        16.8861401985       21.6413665717       23.1636713530
 Cl        14.7003630110       23.5826614806       23.0642583428
 Cl        17.2291799655       24.9394260416       12.0109014166
 Cl        11.1619246218       16.1081933137        7.3155749650
 Cl        17.1747111860       13.5542557626       25.5042133389
 Cl         9.3853251296        9.4500630044       11.1144610171
 Cl        25.5378613676       14.1841403762       17.4085643835
 Cl         7.6713878377       18.2165001249       20.5885513134
 Cl        18.4362641603       25.4276087255       17.9596812782
 Cl        14.7113108738        7.0146788085       19.9739712227
 Cl        18.2417685815       19.9429994667       24.7159603347
 Cl        14.8118050086       25.8140630971       15.5207228327
 Cl        13.5404573249       12.4468264868        6.9766787374
 Cl        11.1013757638        7.4267687123       17.6396875199
 Cl         6.4478398315       14.9655251213       17.8393722834
 Cl        20.6480571667       16.1016822181       24.6396960065
 Cl        24.3014951432       10.9334275448       14.6547266590
 Cl        16.9063373508        6.1883255154       16.2559766167
 Cl        24.3591253216       13.7619681011       11.3150655927
 Cl        20.7907801393       24.5050265265       14.4579799868
 Cl         6.4451629983       17.7001297802       14.6233507867
 Cl        13.2893318162        6.7954094583       13.5979883513
 Cl        14.7624237281       18.3979536036        6.4721567965
 Cl        17.1076581902       14.7542997320        6.2089354235
 Cl        25.5819095560       16.9852044608       14.0466728394
 Cl        14.7494863085       17.1102724146       25.8208364124
 Cl         7.6640380053       20.9410121049       17.3648439847
 Te        14.8058854156       12.4705355572       12.9914598900
 Te        12.1050503235       16.6048363632       13.2421073290
 Te        12.0887946027       13.4289501502       17.0813884889
 Te        18.5750917622       14.9550410891       12.0601209212
 Te        15.8909163634       19.0818011785       12.3434777447
 Te        18.5414926205       11.9371347334       15.6220915734
 Te        15.9980142331       15.9698955392       15.9740258711
 Te        13.3782548200       19.9847526272       16.1056325165
 Te        15.8954491927       12.8962109841       19.6516095624
 Te        13.3423267761       16.7363103462       19.8840351669
 Te        19.9366426545       18.5709409186       15.1246737574
 Te        19.8986180683       15.5615978611       18.6926112690
 Te        17.4312767452       19.4444446604       18.8902204940
 Te        13.5465761255        8.8803474662        9.8658136009
 Te        10.9575012407       13.1261167789       10.4168217478
 Te         8.1364889879       17.3396589868       10.4926904957
 Te        11.0878900619       10.1614566339       14.3487047398
 Te         8.4627989019       13.7929771995       14.1132250830
 Te         8.0662899080       10.8281045739       18.2723249667
 Te        17.3211953489       11.3019013185        8.9724251117
 Te        14.7117102243       15.5673197543        9.5781849962
 Te        11.9053662302       19.7951261483        9.5361846610
 Te        17.2871767680        8.3081533358       12.4795075176
 Te         9.3860776044       20.6988231233       13.3307265446
 Te        14.7351802031        9.5688364961       16.6596859833
 Te         9.8108434969       17.3399112678       17.1046230964
 Te        11.8821375456       10.2786938006       20.8071328275
 Te         9.3392122426       14.1763585848       21.0548854608
 Te        21.1243393546       13.7057861356        8.1042474896
 Te        18.4669242197       18.0520628916        8.5435183364
 Te        15.6135888717       22.3036136163        8.6624136734
 Te        21.1201882963       10.7885709521       11.6169198967
 Te        13.1895313849       23.2018093128       12.4215992948
 Te        21.0210251975        7.8056542459       15.0912021365
 Te        10.6572609290       24.0479542670       16.1669702591
 Te        18.4459943805        8.9289430346       19.2963785766
 Te        11.1333697742       20.8800261881       20.1111468214
 Te        15.5620681409        9.8216807770       23.4491997848
 Te        13.1663571667       13.6863655697       23.6866157271
 Te        10.5717927342       17.4836944476       23.9050787016
 Te        22.4114300405       17.5411139224       11.2681121854
 Te        19.7908680538       21.5728105085       11.5370022966
 Te        22.2421658345       14.5820160414       14.8339373039
 Te        17.2607985793       22.3491797633       15.3217412696
 Te        22.3392667449       11.5751686155       18.3533590784
 Te        14.7778611507       23.2997133290       19.0188915122
 Te        19.7856675627       12.4967301797       22.3162676384
 Te        17.2952309969       16.3586788311       22.4004426586
 Te        14.7406115170       19.8920984494       22.5735713718
 Te        23.9728058090       21.2351776747       14.4688093285
 Te        23.9318726780       18.2481975967       17.9365065271
 Te        21.4243580963       22.1698394607       18.1588033713
 Te        23.8664479696       15.3724222024       21.4817467578
 Te        21.4011431793       19.2171376276       21.7008250695
 Te        18.8854589372       23.0730401000       21.8661302152
     149
 i =        7, E =     -3973.5191814082
 Cd        13.1877778644       14.4508301119       11.7348596401
 Cd        13.3541904457       11.6351313508       15.2917749584
 Cd        10.7434688808       15.2576578284       15.3553195579
 Cd        16.8864421117       16.8954657746       10.8100870593
 Cd        16.9566362191       13.8992303232       14.2054498475
 Cd        14.3738374723       17.8433592815       14.4792679758
 Cd        16.9119444956       10.9929940652       17.7800604993
 Cd        14.3787961567       14.7979180959       18.0732598947
 Cd        12.0480608074       18.7101339962       18.2841835593
 Cd        20.6243389290       16.4217193061       13.3875645134
 Cd        18.1441345711       20.2414992696       13.6510213405
 Cd        20.5855344223       13.4818174369       16.8700022004
 Cd        18.2509337615       17.3532705535       17.1304470974
 Cd        15.6811177793       21.0893253427       17.3573326264
 Cd        18.1642418818       14.3392815878       20.6142834966
 Cd        15.7510397135       17.9976765838       20.6767584208
 Cd        12.5476514896       11.2755874843        8.9835293128
 Cd         9.8811961356       15.5238640048        9.4034032347
 Cd        11.9862873057        8.6135134494       12.1533919993
 Cd         9.5853222707       11.6251559695       12.4512627548
 Cd         7.5908185891       16.2182791577       12.9509673069
 Cd         9.8252525107        9.3963598349       16.7318896797
 Cd         7.5926885057       13.0387159661       16.6961533294
 Cd        15.7416481554       13.3799758101        8.0453898487
 Cd        13.0754320742       17.5716877486        8.3706825021
 Cd        15.7685611510       10.2868357005       11.1384070006
 Cd        10.4990580192       18.6604565705       11.7254485990
 Cd        15.4809327363        7.7796533398       14.5239327216
 Cd         8.4297134148       19.2346015855       15.4851922623
 Cd        13.0446934875        8.7425754901       18.8126168743
 Cd        10.4592454655       12.2400025904       19.3396548097
 Cd         8.4161479364       16.0597739324       19.2399852914
 Cd        19.0732260621       15.4366650197        7.5735331015
 Cd        16.2960375517       19.7812696931        7.8601164223
 Cd        19.3957126085       12.6302669159       10.3333802256
 Cd        14.0613916599       20.9950304745       10.9017690563
 Cd        19.3569274765        9.8351860972       13.6231320958
 Cd        11.7053918390       21.8667948661       14.4389754938
 Cd        18.8731835380        7.5842924416       16.7841127737
 Cd         9.8084990162       22.1168396842       17.9407027816
 Cd        16.2493918781        8.6287703348       21.0883373865
 Cd        14.0416580253       11.8167783838       21.7670995423
 Cd        11.6623091788       15.4362236147       22.0432387358
 Cd         9.8122975517       18.9440701329       21.6948923269
 Cd        22.5872762089       14.9698136358       10.0346947604
 Cd        20.3303045158       19.1316566657       10.3076524603
 Cd        17.4896583765       22.9475116074       10.5421303039
 Cd        22.8296269122       12.4334057515       13.0400530929
 Cd        15.4808806420       23.9631636771       13.7787749676
 Cd        22.4946423667        9.8983489189       16.0457866410
 Cd        13.2444677014       24.4775073898       16.9704048606
 Cd        20.2672625897       10.8872050182       20.0874489582
 Cd        13.5241985447       22.1203360113       21.3217946368
 Cd        17.4379104633       11.7817366645       23.7699842924
 Cd        15.4581732428       15.1480940446       24.2280240496
 Cd        13.1709349194       18.2886013968       24.2543704361
 Cd        24.0377241049       18.7852763390       13.2605857553
 Cd        21.7100432162       22.4100738137       13.4758661079
 Cd        24.2334921512       16.1379256007       16.1731966227
 Cd        22.1809402130       19.9870190933       16.5540025760
 Cd        19.5540840122       23.4894819314       16.5978568107
 Cd        23.9483388901       13.7423981573       19.2897144211
 Cd        22.1239046749       17.2136925686       19.8592345088
 Cd        19.7760487995       20.9107186440       20.1135826762
 Cd        17.3691235918       24.0979125111       19.8262743102
 Cd        21.5549320325       14.7146705747       22.8065477530
 Cd        19.3863584362       18.1386796291       23.2796044738
 Cd        16.8878132695       21.6401476056       23.1680354990
 Cl        14.7038551636       23.5832989089       23.0656487576
 Cl        17.2274879044       24.9435793391       12.0123354563
 Cl        11.1613064364       16.1109044068        7.3123588280
 Cl        17.1726202736       13.5553558817       25.5065678444
 Cl         9.3878056805        9.4470559688       11.1129225420
 Cl        25.5410694760       14.1861220211       17.4065126246
 Cl         7.6683224815       18.2140677985       20.5897960453
 Cl        18.4399074225       25.4300386131       17.9603736819
 Cl        14.7074501963        7.0124113314       19.9738864402
 Cl        18.2455516430       19.9462197059       24.7203517205
 Cl        14.8113960020       25.8166787714       15.5188696166
 Cl        13.5427560502       12.4451141601        6.9730999646
 Cl        11.0990525535        7.4225726803       17.6425665018
 Cl         6.4461694720       14.9664238634       17.8435148063
 Cl        20.6468729545       16.1065274806       24.6408889138
 Cl        24.3054990864       10.9321018287       14.6523550906
 Cl        16.9030862191        6.1867174642       16.2534323516
 Cl        24.3622427577       13.7582183377       11.3158362825
 Cl        20.7912711321       24.5073892434       14.4606749232
 Cl         6.4423239563       17.7034302436       14.6238384273
 Cl        13.2897704827        6.7891155986       13.5953240573
 Cl        14.7585772289       18.3969864554        6.4696517522
 Cl        17.1064580249       14.7513738708        6.2064727421
 Cl        25.5856290289       16.9842208818       14.0478725737
 Cl        14.7478123469       17.1082868501       25.8246897768
 Cl         7.6605186706       20.9414465368       17.3632859872
 Te        14.8019060853       12.4651172742       12.9875785133
 Te        12.0981739755       16.6049302020       13.2371317571
 Te        12.0829330570       13.4240852619       17.0807888763
 Te        18.5805909758       14.9567654870       12.0520937647
 Te        15.8938542237       19.0876593518       12.3361774953
 Te        18.5469983461       11.9301979156       15.6266490925
 Te        15.9991370389       15.9694232615       15.9730921438
 Te        13.3746274943       19.9921610629       16.1067972880
 Te        15.8997186327       12.8899051592       19.6582173183
 Te        13.3390897599       16.7396452875       19.8901970750
 Te        19.9431714765       18.5747925694       15.1192355638
 Te        19.9064146079       15.5572859368       18.6982631315
 Te        17.4307962727       19.4489921225       18.8958759024
 Te        13.5384834860        8.8841223090        9.8672558734
 Te        10.9468121922       13.1223561449       10.4093894478
 Te         8.1371761406       17.3353881717       10.4939508202
 Te        11.0793974330       10.1553473847       14.3487664530
 Te         8.4518887761       13.7880078213       14.1093390180
 Te         8.0657750271       10.8288602202       18.2694084542
 Te        17.3203951692       11.3029026369        8.9647955585
 Te        14.7095819916       15.5665135178        9.5702317535
 Te        11.9049045863       19.7939992194        9.5291516361
 Te        17.2857483715        8.2999454634       12.4815576739
 Te         9.3776458617       20.6991420696       13.3332571022
 Te        14.7333125164        9.5592299683       16.6601427913
 Te         9.8027133602       17.3420872650       17.1068282655
 Te        11.8809008760       10.2712357320       20.8075248778
 Te         9.3308072930       14.1792804821       21.0566035428
 Te        21.1246827290       13.7081741528        8.1045452199
 Te        18.4729455260       18.0568203535        8.5331730647
 Te        15.6163199176       22.3021631815        8.6627010614
 Te        21.1277864019       10.7883741112       11.6170175350
 Te        13.1915786019       23.2098229064       12.4213866555
 Te        21.0203804887        7.8067713815       15.0921719616
 Te        10.6592653564       24.0465379039       16.1700776927
 Te        18.4533965744        8.9175627204       19.3034164187
 Te        11.1266859624       20.8900530130       20.1196006226
 Te        15.5625217837        9.8224481812       23.4475740814
 Te        13.1676246952       13.6855093227       23.6938812848
 Te        10.5728788135       17.4871649903       23.9041280784
 Te        22.4196058231       17.5460275490       11.2576432627
 Te        19.7980978928       21.5791775044       11.5267664495
 Te        22.2510496509       14.5801717767       14.8318759633
 Te        17.2627545850       22.3573500461       15.3207559980
 Te        22.3475702015       11.5658963731       18.3598904204
 Te        14.7739591329       23.3112050186       19.0240139265
 Te        19.7943462684       12.4877738076       22.3250524029
 Te        17.2973224975       16.3583246710       22.4102666906
 Te        14.7373602979       19.8963049445       22.5821267751
 Te        23.9711649062       21.2340146514       14.4672333431
 Te        23.9394831326       18.2459003792       17.9341292573
 Te        21.4254115504       22.1782729005       18.1571217377
 Te        23.8651608136       15.3701344291       21.4813969595
 Te        21.4019839920       19.2174797413       21.7087442479
 Te        18.8774057736       23.0742771250       21.8663027481
     149
 i =        8, E =     -3973.5194326448
 Cd        13.1852165373       14.4489142751       11.7312534402
 Cd        13.3490300991       11.6273890799       15.2894636071
 Cd        10.7406524113       15.2592019718       15.3565852742
 Cd        16.8854210255       16.8958589138       10.8049029141
 Cd        16.9587215592       13.8944214798       14.2020913282
 Cd        14.3719979626       17.8471627120       14.4756002272
 Cd        16.9101851734       10.9867491249       17.7811393339
 Cd        14.3762141378       14.7957224309       18.0772557406
 Cd        12.0450957029       18.7112985959       18.2848188555
 Cd        20.6295222814       16.4208615487       13.3863009575
 Cd        18.1460968796       20.2466898860       13.6493737288
 Cd        20.5901882290       13.4811816326       16.8693241293
 Cd        18.2554194927       17.3554704414       17.1329542119
 Cd        15.6817359415       21.0933134306       17.3584956882
 Cd        18.1660374973       14.3396314519       20.6202514622
 Cd        15.7500310413       18.0010202520       20.6840531283
 Cd        12.5434468626       11.2786732609        8.9832244134
 Cd         9.8806426140       15.5215791858        9.4025397552
 Cd        11.9845467919        8.6114427562       12.1569739116
 Cd         9.5848138207       11.6268769150       12.4505955819
 Cd         7.5893995977       16.2146881109       12.9525995893
 Cd         9.8238409418        9.3951573924       16.7317344222
 Cd         7.5916481491       13.0392987950       16.6927036867
 Cd        15.7409338402       13.3820896156        8.0434474601
 Cd        13.0762415651       17.5700937616        8.3686939135
 Cd        15.7704146387       10.2836938631       11.1341112464
 Cd        10.4970610259       18.6642987492       11.7231320045
 Cd        15.4806702896        7.7756704372       14.5270037334
 Cd         8.4280177744       19.2337783109       15.4874237112
 Cd        13.0447734250        8.7412346088       18.8101027326
 Cd        10.4569787042       12.2395523727       19.3441672312
 Cd         8.4153494520       16.0614503218       19.2394939203
 Cd        19.0724666110       15.4405038086        7.5756013967
 Cd        16.2991408669       19.7786312451        7.8603196645
 Cd        19.3970847362       12.6273223898       10.3316307788
 Cd        14.0591490421       20.9974695852       10.9001001413
 Cd        19.3568926320        9.8335835039       13.6212865851
 Cd        11.7027509811       21.8693689028       14.4359938819
 Cd        18.8721990544        7.5870496603       16.7873385263
 Cd         9.8081991152       22.1170180218       17.9451394232
 Cd        16.2522155225        8.6293022353       21.0854166175
 Cd        14.0391142373       11.8160183152       21.7686327836
 Cd        11.6599502713       15.4343897391       22.0459964901
 Cd         9.8123859120       18.9485216658       21.6948275115
 Cd        22.5872944467       14.9730820287       10.0367157473
 Cd        20.3276371342       19.1295546197       10.3105764506
 Cd        17.4934364906       22.9466569469       10.5431602310
 Cd        22.8323462796       12.4341169478       13.0415068607
 Cd        15.4829389032       23.9641550517       13.7799314042
 Cd        22.4948060965        9.9001471234       16.0492292519
 Cd        13.2452192169       24.4787673236       16.9727958374
 Cd        20.2643815548       10.8896476942       20.0854033201
 Cd        13.5243067976       22.1200419969       21.3194628972
 Cd        17.4409352818       11.7828084959       23.7660191632
 Cd        15.4591275025       15.1489647082       24.2298908575
 Cd        13.1706717424       18.2914541401       24.2557511241
 Cd        24.0349721619       18.7835905463       13.2567565415
 Cd        21.7068110737       22.4076845857       13.4729828232
 Cd        24.2350753229       16.1364257460       16.1709369000
 Cd        22.1826904991       19.9885592483       16.5568197544
 Cd        19.5527741020       23.4918479947       16.5960426708
 Cd        23.9461331936       13.7387065682       19.2881631407
 Cd        22.1263082934       17.2175978682       19.8597092229
 Cd        19.7788939143       20.9129074841       20.1152833073
 Cd        17.3649714662       24.0996903647       19.8256371322
 Cd        21.5519442702       14.7114608086       22.8054729170
 Cd        19.3850105053       18.1363848032       23.2815856583
 Cd        16.8855854641       21.6396005454       23.1721746180
 Cl        14.7071803459       23.5815742367       23.0649197742
 Cl        17.2264721666       24.9462776619       12.0111892288
 Cl        11.1586204127       16.1125981546        7.3098066223
 Cl        17.1716038536       13.5533494606       25.5084225018
 Cl         9.3916864282        9.4462158047       11.1130934390
 Cl        25.5434509864       14.1870018528       17.4072245495
 Cl         7.6658896370       18.2136262592       20.5930414303
 Cl        18.4424292723       25.4326382469       17.9629295488
 Cl        14.7057758273        7.0104206794       19.9758240778
 Cl        18.2489315690       19.9497310250       24.7236779061
 Cl        14.8095331208       25.8193883975       15.5183912122
 Cl        13.5435491438       12.4420527501        6.9705812416
 Cl        11.0953458028        7.4191997642       17.6446213088
 Cl         6.4435909878       14.9652747762       17.8461881551
 Cl        20.6478894247       16.1092923330       24.6411706072
 Cl        24.3080801215       10.9288843195       14.6517928122
 Cl        16.9029454931        6.1848717933       16.2518333016
 Cl        24.3642401361       13.7560834152       11.3142093864
 Cl        20.7936661667       24.5083316763       14.4613917906
 Cl         6.4392482631       17.7049346732       14.6222491943
 Cl        13.2899447222        6.7838181160       13.5921980840
 Cl        14.7569533398       18.3982872838        6.4674714819
 Cl        17.1080844845       14.7495514200        6.2043892865
 Cl        25.5885090713       16.9858615553       14.0474506285
 Cl        14.7449386086       17.1077168129       25.8286369118
 Cl         7.6581949012       20.9441591545       17.3629364932
 Te        14.7988634547       12.4613815921       12.9858445890
 Te        12.0945486272       16.6045210275       13.2341669192
 Te        12.0803260434       13.4205186747       17.0799439889
 Te        18.5837853167       14.9580802334       12.0475378126
 Te        15.8962038490       19.0914387765       12.3315359282
 Te        18.5504092214       11.9260136393       15.6296505141
 Te        16.0001781067       15.9690909577       15.9724801052
 Te        13.3729459516       19.9966179940       16.1078708940
 Te        15.9025065767       12.8860955813       19.6623522457
 Te        13.3378637017       16.7418003077       19.8940639246
 Te        19.9469764509       18.5773974458       15.1158198646
 Te        19.9109422184       15.5547285060       18.7016381352
 Te        17.4300201315       19.4513940828       18.8998768027
 Te        13.5334603158        8.8861246219        9.8674919663
 Te        10.9410493400       13.1197312776       10.4073372489
 Te         8.1373130507       17.3309170965       10.4946973810
 Te        11.0748702401       10.1542453234       14.3454617070
 Te         8.4470070507       13.7835856193       14.1048391109
 Te         8.0651839983       10.8292815673       18.2652013100
 Te        17.3204900483       11.3034038901        8.9601581014
 Te        14.7082139564       15.5654635143        9.5687023738
 Te        11.9048404549       19.7933822201        9.5250167921
 Te        17.2843996461        8.2956487240       12.4828478088
 Te         9.3728457550       20.6997088049       13.3344414237
 Te        14.7327377807        9.5560255363       16.6591435763
 Te         9.8006878463       17.3430496010       17.1074985312
 Te        11.8806423555       10.2665949482       20.8075986925
 Te         9.3251392271       14.1812226571       21.0586762798
 Te        21.1247621649       13.7120997950        8.1054334746
 Te        18.4788620860       18.0611000548        8.5268346844
 Te        15.6205135656       22.2997572619        8.6633850796
 Te        21.1313876380       10.7883060713       11.6174876409
 Te        13.1928575133       23.2144928057       12.4208968007
 Te        21.0201484963        7.8083533373       15.0954476244
 Te        10.6606695272       24.0461661682       16.1739099814
 Te        18.4613626008        8.9102787951       19.3090506848
 Te        11.1253373349       20.8978457751       20.1250439912
 Te        15.5658334754        9.8232670705       23.4445626135
 Te        13.1686201799       13.6850446629       23.6981874400
 Te        10.5741109813       17.4922503048       23.9034474898
 Te        22.4240898532       17.5508610535       11.2488699260
 Te        19.8040812167       21.5821040553       11.5177466786
 Te        22.2542202292       14.5794595630       14.8312006615
 Te        17.2631937012       22.3591181568       15.3213469742
 Te        22.3522201853       11.5581312198       18.3661101976
 Te        14.7714223751       23.3157295029       19.0274680254
 Te        19.8021574926       12.4798048756       22.3296517744
 Te        17.2975769716       16.3585848600       22.4131886492
 Te        14.7362137333       19.9008284273       22.5835383771
 Te        23.9686127948       21.2323438661       14.4641122425
 Te        23.9437515972       18.2447953471       17.9326791435
 Te        21.4263792536       22.1835560662       18.1563605771
 Te        23.8627253897       15.3662706489       21.4802314153
 Te        21.4020362924       19.2179452199       21.7133277665
 Te        18.8729413646       23.0758189827       21.8665214499
     149
 i =        9, E =     -3973.5195623123
 Cd        13.1828619764       14.4462719418       11.7316358328
 Cd        13.3452918167       11.6242034188       15.2865412461
 Cd        10.7408576207       15.2582429516       15.3562777827
 Cd        16.8862437212       16.8968289436       10.8028153219
 Cd        16.9593355239       13.8911935920       14.2001749967
 Cd        14.3712305941       17.8497216658       14.4732628254
 Cd        16.9099347103       10.9840589099       17.7820584433
 Cd        14.3748668300       14.7945393381       18.0797476323
 Cd        12.0460227698       18.7127579543       18.2860997701
 Cd        20.6308998903       16.4216560172       13.3849515962
 Cd        18.1480568067       20.2480398651       13.6473304884
 Cd        20.5912602434       13.4803187482       16.8704366420
 Cd        18.2578543088       17.3571882783       17.1347090002
 Cd        15.6811877867       21.0936979078       17.3613848672
 Cd        18.1675206202       14.3392293844       20.6226962474
 Cd        15.7486409364       18.0042559148       20.6867082804
 Cd        12.5401721773       11.2788176608        8.9823779043
 Cd         9.8793928221       15.5204070597        9.4012341622
 Cd        11.9829158387        8.6088518605       12.1572587201
 Cd         9.5831223747       11.6278652598       12.4498541659
 Cd         7.5879747410       16.2116563327       12.9531929788
 Cd         9.8225933597        9.3937123425       16.7311257047
 Cd         7.5905825129       13.0396352606       16.6894679403
 Cd        15.7409165320       13.3829007777        8.0420899595
 Cd        13.0766168472       17.5693438883        8.3672381120
 Cd        15.7705792250       10.2828848979       11.1321836632
 Cd        10.4963779292       18.6658320741       11.7223184212
 Cd        15.4806567807        7.7728369166       14.5283464690
 Cd         8.4269227131       19.2337628891       15.4884799798
 Cd        13.0447585484        8.7405001263       18.8081900599
 Cd        10.4565681722       12.2405060885       19.3455972035
 Cd         8.4149206931       16.0624871585       19.2396383896
 Cd        19.0724436737       15.4434132686        7.5775858097
 Cd        16.3020393516       19.7768737585        7.8606547776
 Cd        19.3977223392       12.6264805604       10.3309545383
 Cd        14.0588188490       20.9983533287       10.8993745245
 Cd        19.3558926842        9.8332520332       13.6210789811
 Cd        11.7018524512       21.8704418571       14.4350340040
 Cd        18.8715815344        7.5899139099       16.7905580994
 Cd         9.8080926307       22.1179140639       17.9485998402
 Cd        16.2549151663        8.6297845805       21.0827237934
 Cd        14.0385352388       11.8159465437       21.7687813633
 Cd        11.6596135471       15.4342685786       22.0461998832
 Cd         9.8125380501       18.9524205486       21.6949478874
 Cd        22.5868118083       14.9756712596       10.0381323127
 Cd        20.3255543104       19.1278618343       10.3128404296
 Cd        17.4965520380       22.9455436015       10.5437805000
 Cd        22.8341696323       12.4336976787       13.0420335713
 Cd        15.4839644856       23.9646670803       13.7804709714
 Cd        22.4944261608        9.9013509803       16.0524088627
 Cd        13.2448893615       24.4808379420       16.9743326432
 Cd        20.2620458418       10.8916567151       20.0837300255
 Cd        13.5234961175       22.1205694363       21.3184496282
 Cd        17.4439145512       11.7834179925       23.7625330434
 Cd        15.4595279127       15.1494998562       24.2312840347
 Cd        13.1707884927       18.2940338018       24.2571111657
 Cd        24.0323319863       18.7825973104       13.2533531235
 Cd        21.7045093265       22.4053100655       13.4704950310
 Cd        24.2367549385       16.1359863929       16.1699941080
 Cd        22.1825707714       19.9892468933       16.5580870259
 Cd        19.5525354746       23.4935605412       16.5953569092
 Cd        23.9438123975       13.7356339818       19.2871648294
 Cd        22.1269396888       17.2199616700       19.8598197545
 Cd        19.7788082155       20.9137735528       20.1157583241
 Cd        17.3628492703       24.1017963260       19.8268296847
 Cd        21.5492907329       14.7085050738       22.8040457499
 Cd        19.3840979779       18.1353831127       23.2825151909
 Cd        16.8847335839       21.6414880113       23.1755923315
 Cl        14.7097794710       23.5799867112       23.0637611983
 Cl        17.2260643154       24.9477420464       12.0086356930
 Cl        11.1551214655       16.1135865543        7.3077309081
 Cl        17.1712011768       13.5497805308       25.5094439872
 Cl         9.3948040268        9.4461658742       11.1132228369
 Cl        25.5451157895       14.1870222674       17.4094498777
 Cl         7.6644564537       18.2145569340       20.5972459299
 Cl        18.4440968439       25.4353627087       17.9661077243
 Cl        14.7054566347        7.0092553246       19.9785863970
 Cl        18.2519382113       19.9528053339       24.7262309738
 Cl        14.8072532521       25.8220127230       15.5186195972
 Cl        13.5434027476       12.4386612782        6.9686066634
 Cl        11.0912468681        7.4168789141       17.6459858584
 Cl         6.4411156847       14.9627911792       17.8475676417
 Cl        20.6503270459       16.1100025687       24.6409904936
 Cl        24.3094652163       10.9249397032       14.6523506896
 Cl        16.9050358591        6.1828842295       16.2514331381
 Cl        24.3653779105       13.7552019590       11.3113565557
 Cl        20.7969217312       24.5083662166       14.4605898865
 Cl         6.4364543809       17.7051495212       14.6196251134
 Cl        13.2901803013        6.7792925730       13.5894041188
 Cl        14.7569157238       18.4007545863        6.4656321764
 Cl        17.1112458784       14.7487330259        6.2025739720
 Cl        25.5905092530       16.9888582558       14.0459725396
 Cl        14.7415565396       17.1080162303       25.8320611359
 Cl         7.6568500557       20.9479076259       17.3634602456
 Te        14.7973305335       12.4592317488       12.9853444803
 Te        12.0933407811       16.6041468997       13.2329110710
 Te        12.0796828666       13.4182317971       17.0794136462
 Te        18.5850508408       14.9590047614       12.0457623152
 Te        15.8978744835       19.0934363867       12.3290591092
 Te        18.5517858263       11.9240868224       15.6314416536
 Te        16.0008638516       15.9689526233       15.9721997270
 Te        13.3726030570       19.9985970459       16.1084852551
 Te        15.9042082632       12.8843129673       19.6643144350
 Te        13.3375876878       16.7428049450       19.8960319185
 Te        19.9486287221       18.5787456199       15.1142859241
 Te        19.9127742734       15.5536601119       18.7032862108
 Te        17.4296407583       19.4521262805       18.9020385199
 Te        13.5301898384        8.8875211753        9.8674296777
 Te        10.9384059704       13.1195886658       10.4080477872
 Te         8.1359656352       17.3279053507       10.4956318316
 Te        11.0718510982       10.1547118644       14.3452240831
 Te         8.4460230602       13.7805387307       14.1021178646
 Te         8.0630521679       10.8300109411       18.2627527358
 Te        17.3212313325       11.3033494115        8.9576228316
 Te        14.7073713147       15.5647106504        9.5703653268
 Te        11.9045852111       19.7937776248        9.5230385441
 Te        17.2834622274        8.2942292981       12.4831478023
 Te         9.3704210418       20.7007074179       13.3345179365
 Te        14.7322756376        9.5560305969       16.6578956115
 Te         9.8019760402       17.3431034461       17.1077521332
 Te        11.8800696937       10.2646554338       20.8078663760
 Te         9.3219700334       14.1816018555       21.0613169950
 Te        21.1248934418       13.7164489515        8.1063488602
 Te        18.4835023735       18.0644923348        8.5231145483
 Te        15.6247856702       22.2976647226        8.6638467582
 Te        21.1323825275       10.7879520691       11.6181247269
 Te        13.1930267324       23.2166589682       12.4201263406
 Te        21.0202190873        7.8097118263       15.0993818865
 Te        10.6603667962       24.0464010303       16.1774175392
 Te        18.4675599625        8.9053428418       19.3133436050
 Te        11.1263052303       20.9018859362       20.1281086047
 Te        15.5697399224        9.8236634227       23.4417722171
 Te        13.1682433462       13.6848342918       23.7001842999
 Te        10.5733199362       17.4964742541       23.9037518027
 Te        22.4266738330       17.5546130360       11.2424595179
 Te        19.8084650303       21.5835693230       11.5109131723
 Te        22.2541349334       14.5794919386       14.8312964799
 Te        17.2626845120       22.3576657950       15.3224158004
 Te        22.3546035736       11.5525912412       18.3709595893
 Te        14.7696468722       23.3160056671       19.0283374741
 Te        19.8080341299       12.4736710188       22.3324576967
 Te        17.2963394359       16.3590327309       22.4127749034
 Te        14.7347627633       19.9018737012       22.5830973989
 Te        23.9660528170       21.2306783940       14.4605203619
 Te        23.9457439956       18.2448105464       17.9320461177
 Te        21.4270969060       22.1861313314       18.1565393289
 Te        23.8601676132       15.3623348382       21.4790120444
 Te        21.4018112667       19.2187189631       21.7153466307
 Te        18.8702666146       23.0771558533       21.8667196174
     149
 i =        1, E =     -3973.4950001749
 Cd        13.2245305421       14.4694535387       11.7699941838
 Cd        13.3547264531       11.6604722239       15.2801563134
 Cd        10.7994632879       15.2721297499       15.3739671326
 Cd        16.8616058573       16.8715033414       10.8853353049
 Cd        16.9432972269       13.9202203515       14.2266347435
 Cd        14.3859516689       17.8314924049       14.4919892444
 Cd        16.8718087996       11.0768273679       17.7304390146
 Cd        14.3906835724       14.8075272022       18.0616407844
 Cd        12.0819366966       18.6607738334       18.2484248188
 Cd        20.5535216027       16.4019188819       13.4436764405
 Cd        18.1004133957       20.1842114350       13.7006825011
 Cd        20.5154110993       13.5284741979       16.8435479638
 Cd        18.2298064349       17.3460254681       17.1191223443
 Cd        15.6892107067       21.0414061287       17.3410378156
 Cd        18.1074970223       14.3945402979       20.5458583214
 Cd        15.7451564793       18.0129283622       20.6470261169
 Cd        12.4917673172       11.3018999277        9.0278064517
 Cd         9.8932114518       15.4509147977        9.4420784028
 Cd        11.9380451822        8.6560036314       12.1728120653
 Cd         9.6411518850       11.6967091674       12.4849126147
 Cd         7.6175603277       16.1425016515       12.9659167810
 Cd         9.8473160878        9.4326924217       16.6499755827
 Cd         7.6167835426       13.0417665582       16.6259107992
 Cd        15.7229735032       13.4340961520        8.0918074994
 Cd        13.1175798526       17.5301002250        8.4051584416
 Cd        15.7478026313       10.3453241506       11.1897334478
 Cd        10.5451294349       18.6162115672       11.7650051863
 Cd        15.4755589058        7.8373219985       14.5850237716
 Cd         8.4713876865       19.1920917795       15.5168979252
 Cd        13.0922962064        8.7740427847       18.7704991640
 Cd        10.5040226405       12.2682825321       19.2882346985
 Cd         8.4530565808       16.0844295270       19.1911168357
 Cd        19.0745948350       15.5293221516        7.6083599450
 Cd        16.3869701770       19.7462943114        7.8862447191
 Cd        19.3696398733       12.6741440772       10.3721728793
 Cd        14.0973045928       20.9490892971       10.9358550738
 Cd        19.3397014727        9.8728682891       13.6563261902
 Cd        11.7513311736       21.8223318267       14.4761102988
 Cd        18.8801749593        7.6278918864       16.8771477783
 Cd         9.8582557762       22.0894216254       18.0024843320
 Cd        16.3351427601        8.6415155353       21.0513887047
 Cd        14.0791441541       11.8406340421       21.7305339546
 Cd        11.7024533719       15.4612105982       21.9877015364
 Cd         9.8561034920       18.9930957746       21.6639300252
 Cd        22.5641626450       15.0633478406       10.0600239472
 Cd        20.3300496118       19.1330197480       10.3122479441
 Cd        17.5653305660       22.8840417501       10.5569504702
 Cd        22.8013929964       12.4881716680       13.0773567012
 Cd        15.5215702289       23.9133517139       13.8088594795
 Cd        22.4753984336        9.9385941356       16.1347390545
 Cd        13.2721367172       24.4501351818       17.0433608426
 Cd        20.2668950357       10.8871439879       20.0916196443
 Cd        13.5227429492       22.0689187576       21.2527070744
 Cd        17.5233511617       11.7767702174       23.7277920528
 Cd        15.5064871495       15.1732152519       24.1720398873
 Cd        13.2047654956       18.3402089739       24.1916516165
 Cd        23.9799891881       18.7657688640       13.1875875918
 Cd        21.6652603468       22.3745754132       13.3997430941
 Cd        24.1764493294       16.1017166328       16.1473308754
 Cd        22.1353291593       19.9569477505       16.5283497320
 Cd        19.5027463618       23.4509078430       16.5637649668
 Cd        23.8901697716       13.6655196328       19.2842200559
 Cd        22.0686179799       17.1842534514       19.8329054829
 Cd        19.7261634755       20.8743043106       20.0777431243
 Cd        17.2975070311       24.0763140080       19.8247700553
 Cd        21.5126108447       14.6266725717       22.7875908254
 Cd        19.3425206772       18.0780428479       23.2535340441
 Cd        16.8288513823       21.6211470971       23.1389513464
 Cl        14.7117720573       23.5104958405       23.0231034779
 Cl        17.1954841053       24.8719063158       12.0058587466
 Cl        11.1672864551       16.1242604660        7.3853438239
 Cl        17.1461659007       13.5385747264       25.4441771665
 Cl         9.4407204307        9.4846941119       11.1664026398
 Cl        25.4771680750       14.2154126158       17.4338390174
 Cl         7.7349498396       18.1867696736       20.5902437518
 Cl        18.4331402208       25.3553007139       17.9760899328
 Cl        14.7158556929        7.0818043926       19.9827454113
 Cl        18.2280478238       19.9393144043       24.6215263596
 Cl        14.7846698677       25.7463224312       15.5158900045
 Cl        13.5609638712       12.4354741724        7.0494345659
 Cl        11.1139446471        7.5058892861       17.6395382529
 Cl         6.5123890285       14.9391465460       17.8433330809
 Cl        20.6498613730       16.1129380677       24.5651754931
 Cl        24.2229880904       10.9369221454       14.6528226895
 Cl        16.9339817237        6.2567538241       16.2256663449
 Cl        24.2841046870       13.7617712197       11.3151945493
 Cl        20.7931366819       24.4367607983       14.4786262151
 Cl         6.5176688934       17.6970043312       14.5931787313
 Cl        13.3120042213        6.8921289334       13.5813527759
 Cl        14.7654425246       18.4221077495        6.5433396481
 Cl        17.1304100708       14.7416987071        6.2775708125
 Cl        25.5193103512       17.0156074601       14.0749515290
 Cl        14.7287607475       17.0995706434       25.7498689927
 Cl         7.7341894122       20.9399639924       17.3339814739
 Te        14.8013773280       12.4946152694       13.0156639202
 Te        12.1281478199       16.5935154814       13.2605854608
 Te        12.1160627232       13.4375377455       17.0642730641
 Te        18.5541470396       14.9593714913       12.0857653195
 Te        15.8898057256       19.0635539333       12.3637127016
 Te        18.5243813331       11.9609616498       15.6188282855
 Te        15.9948166904       15.9736247547       15.9770999047
 Te        13.3963761288       19.9624631159       16.1136425413
 Te        15.8904849512       12.9145278717       19.6320748000
 Te        13.3671287899       16.7425279749       19.8656122574
 Te        19.9109575770       18.5590420690       15.1296607646
 Te        19.8704618580       15.5674510387       18.6744136395
 Te        17.4136044622       19.4263771211       18.8764854562
 Te        13.5351229762        8.9459249776        9.9345912435
 Te        10.9899654385       13.1399360702       10.4605420972
 Te         8.1994793516       17.2894938296       10.5415512515
 Te        11.1103536548       10.1997920661       14.3485564488
 Te         8.5148155931       13.7921629573       14.1153104394
 Te         8.1270125759       10.8645262476       18.2156320839
 Te        17.2812081693       11.3715546773        9.0418830125
 Te        14.7155863219       15.5698544614        9.6093736215
 Te        11.9598912080       19.7274964635        9.5948924543
 Te        17.2525989795        8.3808105436       12.5380068233
 Te         9.4509529027       20.6366880627       13.3812752270
 Te        14.7277776153        9.6049446470       16.6521342142
 Te         9.8348249775       17.3314206592       17.0995222600
 Te        11.9391854364       10.3272720280       20.7369832526
 Te         9.3960983542       14.2123135297       20.9852463691
 Te        21.0841925932       13.7741398047        8.1720912765
 Te        18.4606991981       18.0447477928        8.6142007990
 Te        15.6618408599       22.2358487682        8.7201473545
 Te        21.0792333291       10.8622574227       11.6764580079
 Te        13.2424358678       23.1309875953       12.4735926965
 Te        20.9850696180        7.8816552932       15.1501510936
 Te        10.7139343047       23.9819411065       16.2096005153
 Te        18.4299041261        9.0086672541       19.2671113687
 Te        11.1779255820       20.8536512452       20.0952434391
 Te        15.6166397313        9.8626683568       23.3776717747
 Te        13.2226689557       13.7333228581       23.6100355322
 Te        10.6274704714       17.5084726749       23.8384596998
 Te        22.3435898351       17.5379233003       11.3050384028
 Te        19.7649975800       21.5157542289       11.5643930502
 Te        22.2126028696       14.5861945162       14.8407260252
 Te        17.2518743703       22.3182565893       15.3288584531
 Te        22.2741849730       11.6066722288       18.3481942901
 Te        14.7831263009       23.2479583352       19.0080634286
 Te        19.7484731148       12.5274207216       22.2437147941
 Te        17.2771217362       16.3728360318       22.3665428893
 Te        14.7382375331       19.8802363677       22.5276978074
 Te        23.8919830630       21.1869404297       14.4335380882
 Te        23.8459743020       18.1989738283       17.8984106785
 Te        21.3454144811       22.1199981297       18.1200156805
 Te        23.7818937051       15.3323188768       21.4370477788
 Te        21.3179416164       19.1702395230       21.6589519143
 Te        18.8253389673       23.0099525475       21.8245278895
     149
 i =        2, E =     -3973.5064687137
 Cd        13.2215149186       14.4665379239       11.7716117730
 Cd        13.3604296850       11.6670458778       15.2832999490
 Cd        10.7959653579       15.2661907264       15.3689504597
 Cd        16.8679697795       16.8756273926       10.8797311450
 Cd        16.9426901996       13.9190198279       14.2254197014
 Cd        14.3860341839       17.8301913486       14.4929465558
 Cd        16.8785306424       11.0715319335       17.7360650403
 Cd        14.3907718077       14.8081182583       18.0597203845
 Cd        12.0830696375       18.6682395695       18.2548931409
 Cd        20.5571599444       16.4076155164       13.4364688205
 Cd        18.1063231672       20.1862856514       13.6938773057
 Cd        20.5182893992       13.5227283437       16.8494903076
 Cd        18.2294987331       17.3458023444       17.1202496667
 Cd        15.6872318656       21.0412799650       17.3435538191
 Cd        18.1141998738       14.3860692090       20.5495976929
 Cd        15.7463294998       18.0069978616       20.6407251531
 Cd        12.5096316933       11.2811918428        9.0216620267
 Cd         9.8823380241       15.4761425636        9.4390224144
 Cd        11.9467420592        8.6513097297       12.1570530129
 Cd         9.6277357648       11.6844575371       12.4841572944
 Cd         7.6171552841       16.1622224668       12.9533474246
 Cd         9.8322772260        9.4301107162       16.6776139033
 Cd         7.6170726017       13.0314284020       16.6475995870
 Cd        15.7322186013       13.4186382590        8.0951261375
 Cd        13.1084245720       17.5449632668        8.4113306113
 Cd        15.7411453794       10.3500522428       11.1938959829
 Cd        10.5443836254       18.6081199447       11.7673864145
 Cd        15.4815669521        7.8396823435       14.5683193633
 Cd         8.4761012539       19.2031831270       15.5020438155
 Cd        13.0823992627        8.7829205655       18.7820683520
 Cd        10.5051148922       12.2705095787       19.2772921560
 Cd         8.4587241688       16.0716642623       19.2043003645
 Cd        19.0832786794       15.5028792267        7.6043937552
 Cd        16.3659497437       19.7654656146        7.8865568902
 Cd        19.3705611673       12.6832611947       10.3715136602
 Cd        14.1056336209       20.9467462149       10.9343562085
 Cd        19.3377339612        9.8763827974       13.6658889347
 Cd        11.7530228040       21.8194864189       14.4838767502
 Cd        18.8862522161        7.6225201087       16.8531998287
 Cd         9.8543732594       22.1000680422       17.9826966328
 Cd        16.3146255176        8.6461596738       21.0700968783
 Cd        14.0872377259       11.8403800870       21.7259824206
 Cd        11.7061536435       15.4701845055       21.9829660042
 Cd         9.8534044605       18.9747323347       21.6784960854
 Cd        22.5599381598       15.0392965193       10.0461670968
 Cd        20.3323376778       19.1341923229       10.3095534884
 Cd        17.5412084333       22.8916170056       10.5456484987
 Cd        22.7910925157       12.4754866726       13.0667905577
 Cd        15.5053578830       23.9113902489       13.7999691696
 Cd        22.4699200459        9.9224034217       16.1134854430
 Cd        13.2541541237       24.4541143443       17.0234572133
 Cd        20.2689692866       10.8855596940       20.0924618742
 Cd        13.5174555197       22.0751265390       21.2661343215
 Cd        17.4975631421       11.7685501074       23.7341525866
 Cd        15.4898489030       15.1659896765       24.1703657641
 Cd        13.1836333746       18.3225632244       24.2056953239
 Cd        23.9892059951       18.7812815005       13.2087191628
 Cd        21.6841976453       22.3759138749       13.4189208039
 Cd        24.1766539690       16.1169774455       16.1599982749
 Cd        22.1306768288       19.9555716778       16.5187074577
 Cd        19.5152658420       23.4446220190       16.5757118204
 Cd        23.8990590158       13.6883999147       19.2961098071
 Cd        22.0652284368       17.1759174547       19.8346055531
 Cd        19.7154345451       20.8711718871       20.0779118393
 Cd        17.3224122583       24.0766771477       19.8368490628
 Cd        21.5282436377       14.6459380931       22.7839051066
 Cd        19.3519614544       18.0908615675       23.2439097115
 Cd        16.8421091595       21.6346465100       23.1379103623
 Cl        14.7063962540       23.5341305790       23.0349146526
 Cl        17.2106940123       24.9003828422       12.0034818542
 Cl        11.1615229929       16.1151111050        7.3544991301
 Cl        17.1605116253       13.5405389777       25.4724288542
 Cl         9.4212397865        9.4752853462       11.1492630143
 Cl        25.5044733352       14.2000017589       17.4275499733
 Cl         7.7061136247       18.2025450114       20.5924803345
 Cl        18.4322153691       25.3883763624       17.9711462770
 Cl        14.7173018778        7.0500510144       19.9827433506
 Cl        18.2314131292       19.9400206521       24.6572467215
 Cl        14.7941480305       25.7772258959       15.5194414510
 Cl        13.5483751450       12.4384101425        7.0184484450
 Cl        11.1076469705        7.4724000456       17.6377430020
 Cl         6.4807452072       14.9477290544       17.8395200170
 Cl        20.6525124504       16.1065622865       24.5969276762
 Cl        24.2556871641       10.9322993955       14.6557716542
 Cl        16.9268368127        6.2276034003       16.2376287631
 Cl        24.3165987629       13.7637366941       11.3110090247
 Cl        20.7954706707       24.4663794759       14.4670960885
 Cl         6.4853703776       17.6960142604       14.6024869723
 Cl        13.3024324954        6.8579595015       13.5881603616
 Cl        14.7672553048       18.4159152633        6.5118576994
 Cl        17.1244376422       14.7487166697        6.2472135597
 Cl        25.5469910365       17.0060708870       14.0611011761
 Cl        14.7376205513       17.1065280618       25.7813374074
 Cl         7.7045744248       20.9445176998       17.3483083076
 Te        14.8073163804       12.4868838340       13.0090517777
 Te        12.1245038243       16.6008894820       13.2564157592
 Te        12.1105534061       13.4353769470       17.0743934441
 Te        18.5567444384       14.9513707918       12.0822029661
 Te        15.8833604471       19.0679863867       12.3615218781
 Te        18.5263600640       11.9559347211       15.6109364583
 Te        15.9941863464       15.9731587193       15.9773356113
 Te        13.3913839565       19.9670180327       16.1066344217
 Te        15.8835133332       12.9129736831       19.6368671448
 Te        13.3599682782       16.7353121469       19.8712715021
 Te        19.9180637202       18.5625066656       15.1362768903
 Te        19.8760859361       15.5737594992       18.6763916407
 Te        17.4242149113       19.4309104171       18.8797499262
 Te        13.5407322795        8.9233401927        9.9105201244
 Te        10.9830426625       13.1350634857       10.4687212063
 Te         8.1763215297       17.3060018918       10.5249913404
 Te        11.1141192320       10.2078673568       14.3407385214
 Te         8.5172646888       13.7827497040       14.1055229772
 Te         8.1030361164       10.8521492315       18.2351181639
 Te        17.2948098766       11.3472882718        9.0202836723
 Te        14.7175895782       15.5692614829        9.6175338546
 Te        11.9410636282       19.7508742854        9.5755985391
 Te        17.2638846353        8.3567545567       12.5190454822
 Te         9.4308235750       20.6586681182       13.3630951489
 Te        14.7346163671        9.6105497455       16.6518741586
 Te         9.8443894146       17.3295400870       17.0974106665
 Te        11.9208107169       10.3110070250       20.7621594695
 Te         9.3763090166       14.1992095312       21.0101490969
 Te        21.0963294949       13.7554887669        8.1515890630
 Te        18.4688911004       18.0502019358        8.6094264366
 Te        15.6490473301       22.2558363262        8.7024265165
 Te        21.0933227262       10.8376776985       11.6555844947
 Te        13.2239668266       23.1545841145       12.4552360254
 Te        20.9988538255        7.8577412547       15.1355674732
 Te        10.6933675562       24.0056868327       16.1976123429
 Te        18.4420888019        9.0006690204       19.2742176899
 Te        11.1875229072       20.8621851876       20.0994778991
 Te        15.6029853556        9.8485242228       23.4010026109
 Te        13.2042237131       13.7174039999       23.6362767356
 Te        10.6050857993       17.5011315439       23.8620967363
 Te        22.3477068424       17.5444809675       11.2948987713
 Te        19.7710941034       21.5158121653       11.5554170832
 Te        22.2054042605       14.5884243981       14.8418592097
 Te        17.2507878554       22.3100264059       15.3302011650
 Te        22.2778729465       11.5984102542       18.3558232384
 Te        14.7756414364       23.2434797889       19.0162093304
 Te        19.7594475504       12.5164972753       22.2483734857
 Te        17.2810121018       16.3693923758       22.3588869062
 Te        14.7402592793       19.8849431968       22.5174393982
 Te        23.9166916866       21.2015178401       14.4416952217
 Te        23.8751530378       18.2147880266       17.9117283126
 Te        21.3735034464       22.1365436012       18.1331341345
 Te        23.8080966635       15.3420544877       21.4503272790
 Te        21.3456022956       19.1849522574       21.6723304817
 Te        18.8473058016       23.0319488524       21.8378208848
     149
 i =        3, E =     -3973.5128538417
 Cd        13.2124554470       14.4605684373       11.7702436831
 Cd        13.3646083287       11.6709571034       15.2862823708
 Cd        10.7877216504       15.2576043744       15.3603809051
 Cd        16.8778680698       16.8826020367       10.8682856254
 Cd        16.9432811161       13.9138621218       14.2201781748
 Cd        14.3821178997       17.8326091636       14.4912132377
 Cd        16.8909536017       11.0601489997       17.7461373789
 Cd        14.3867170523       14.8070296581       18.0617195016
 Cd        12.0826893686       18.6809579673       18.2648982098
 Cd        20.5663078869       16.4156269864       13.4238301594
 Cd        18.1160992750       20.1917869745       13.6821587895
 Cd        20.5266399410       13.5118685599       16.8581865184
 Cd        18.2329312110       17.3493829314       17.1238709748
 Cd        15.6828099957       21.0461333411       17.3505628008
 Cd        18.1262540443       14.3715816778       20.5578258957
 Cd        15.7476002995       18.0017075524       20.6372015043
 Cd        12.5267426156       11.2724942074        9.0075401780
 Cd         9.8798832645       15.4972582870        9.4274787773
 Cd        11.9583079667        8.6399772045       12.1440751992
 Cd         9.6108484698       11.6597364760       12.4742795690
 Cd         7.6111413486       16.1852503227       12.9491203926
 Cd         9.8288612799        9.4193996156       16.6975106049
 Cd         7.6118457422       13.0317247461       16.6678020387
 Cd        15.7384352630       13.3998953207        8.0831663991
 Cd        13.0953840537       17.5594523665        8.4031443563
 Cd        15.7441895566       10.3413487164       11.1875245367
 Cd        10.5367376906       18.6157701651       11.7614965502
 Cd        15.4856176028        7.8287133599       14.5466823889
 Cd         8.4675717478       19.2167372986       15.4902914069
 Cd        13.0692657226        8.7775857364       18.7956047788
 Cd        10.4995679937       12.2672081401       19.2843449206
 Cd         8.4506303671       16.0625267497       19.2189809927
 Cd        19.0816462507       15.4777591425        7.5932674847
 Cd        16.3405784967       19.7743431710        7.8792615924
 Cd        19.3744607551       12.6743678384       10.3646822700
 Cd        14.0988310825       20.9543878750       10.9285503427
 Cd        19.3388397047        9.8701044176       13.6594444827
 Cd        11.7451658210       21.8258243475       14.4780706571
 Cd        18.8851576181        7.6095105815       16.8246856740
 Cd         9.8415916303       22.1065693023       17.9625315691
 Cd        16.2909074370        8.6413985045       21.0785893977
 Cd        14.0800576180       11.8368260132       21.7318936326
 Cd        11.7007101217       15.4662206817       21.9892611046
 Cd         9.8421909160       18.9587090805       21.6851002163
 Cd        22.5669984918       15.0131770164       10.0406240855
 Cd        20.3356646738       19.1353578278       10.3059488096
 Cd        17.5195800405       22.9089157966       10.5429735271
 Cd        22.7958884355       12.4598525825       13.0547310821
 Cd        15.4916765475       23.9240036880       13.7902306145
 Cd        22.4754125821        9.9124604452       16.0870948726
 Cd        13.2469854472       24.4626629332       17.0011393452
 Cd        20.2716580951       10.8833352684       20.0933478097
 Cd        13.5175564631       22.0913492532       21.2910726059
 Cd        17.4754507538       11.7714923202       23.7482220326
 Cd        15.4752165919       15.1586370497       24.1835798496
 Cd        13.1768697536       18.3063350137       24.2222957361
 Cd        24.0058616717       18.7852580931       13.2309105688
 Cd        21.6970773826       22.3882502794       13.4401331158
 Cd        24.1916541558       16.1280858788       16.1698323448
 Cd        22.1374473580       19.9604771957       16.5230429212
 Cd        19.5316320042       23.4541045115       16.5875495315
 Cd        23.9156998355       13.7104943497       19.2966761551
 Cd        22.0743290009       17.1815531040       19.8403498110
 Cd        19.7215134739       20.8745981648       20.0845020083
 Cd        17.3444217970       24.0838486522       19.8365691392
 Cd        21.5416182332       14.6712962106       22.7893545728
 Cd        19.3667870332       18.1097921177       23.2462565959
 Cd        16.8599774757       21.6463000111       23.1432200121
 Cl        14.7006665304       23.5540638554       23.0448331677
 Cl        17.2226205690       24.9179116864       12.0023258851
 Cl        11.1586030248       16.1079636530        7.3352796398
 Cl        17.1712567727       13.5421587273       25.4889400884
 Cl         9.4038327030        9.4680732776       11.1352927660
 Cl        25.5205977905       14.1884482783       17.4229733902
 Cl         7.6886826379       18.2148401314       20.5932121948
 Cl        18.4304704573       25.4092824953       17.9670721264
 Cl        14.7197718878        7.0305508058       19.9817059509
 Cl        18.2336607527       19.9400147277       24.6852124797
 Cl        14.8014017995       25.7964269933       15.5232147090
 Cl        13.5399019380       12.4419284516        6.9987446580
 Cl        11.1034424205        7.4505005781       17.6353415496
 Cl         6.4608555846       14.9534389551       17.8348066446
 Cl        20.6541136291       16.0989723609       24.6189732519
 Cl        24.2769357610       10.9302769229       14.6593547251
 Cl        16.9222213451        6.2070158749       16.2492081191
 Cl        24.3375218411       13.7670898232       11.3087610821
 Cl        20.7959290495       24.4846018557       14.4578580514
 Cl         6.4638689604       17.6935165140       14.6098352422
 Cl        13.2945500505        6.8304762381       13.5944133496
 Cl        14.7701578336       18.4106985794        6.4916937555
 Cl        17.1204433839       14.7550998368        6.2278246896
 Cl        25.5637140317       16.9993035874       14.0502592373
 Cl        14.7436603692       17.1122379696       25.8010959327
 Cl         7.6855895368       20.9466100952       17.3600417330
 Te        14.8117141833       12.4857103928       13.0072217814
 Te        12.1243683073       16.6027719264       13.2560211555
 Te        12.1087402397       13.4365366709       17.0788795394
 Te        18.5582852604       14.9508976724       12.0821052152
 Te        15.8831864889       19.0680354658       12.3619396545
 Te        18.5270946974       11.9558447330       15.6107991086
 Te        15.9944114576       15.9722507546       15.9770281159
 Te        13.3901318179       19.9665972388       16.1042730504
 Te        15.8834008494       12.9129379381       19.6370012338
 Te        13.3566026905       16.7312019314       19.8710919779
 Te        19.9191964519       18.5622565133       15.1376036032
 Te        19.8769205626       15.5737648491       18.6766209404
 Te        17.4282640740       19.4305468531       18.8783276639
 Te        13.5499946777        8.8975590524        9.8892308341
 Te        10.9813535615       13.1359262267       10.4615089890
 Te         8.1531550034       17.3260370596       10.5089760202
 Te        11.1123288693       10.2031186679       14.3484875657
 Te         8.5080065791       13.7870862780       14.1095744131
 Te         8.0794917789       10.8401666272       18.2584642610
 Te        17.3107143769       11.3244462911        9.0055269407
 Te        14.7181360599       15.5694516394        9.6182270405
 Te        11.9242447351       19.7749668877        9.5645200860
 Te        17.2764809793        8.3411927102       12.5001178572
 Te         9.4185047753       20.6786917687       13.3434367923
 Te        14.7383622633        9.6106033737       16.6539715737
 Te         9.8460152920       17.3298002354       17.0969850130
 Te        11.9033793407       10.3035095890       20.7860578136
 Te         9.3656699448       14.1839195980       21.0332808609
 Te        21.1088506145       13.7315939545        8.1285280645
 Te        18.4666941745       18.0497731285        8.5934981287
 Te        15.6314821029       22.2793052532        8.6831417305
 Te        21.0973941084       10.8141852983       11.6357052847
 Te        13.2039662810       23.1692451801       12.4372198414
 Te        21.0098661851        7.8313106187       15.1177116345
 Te        10.6713375957       24.0279126171       16.1826213528
 Te        18.4420516742        8.9828731179       19.2818812735
 Te        11.1768935746       20.8618602575       20.0989745415
 Te        15.5843165593        9.8341292299       23.4270117191
 Te        13.1838632193       13.7012167885       23.6538782178
 Te        10.5821811272       17.4904322517       23.8862123065
 Te        22.3636028973       17.5424734131       11.2890735841
 Te        19.7744092438       21.5302247315       11.5524448828
 Te        22.2044705020       14.5892342489       14.8417363958
 Te        17.2507108899       22.3094960820       15.3290589569
 Te        22.2929572857       11.5936534824       18.3543878056
 Te        14.7768833761       23.2502732495       19.0137175517
 Te        19.7646687473       12.5106752458       22.2660253537
 Te        17.2832971766       16.3644616700       22.3581209694
 Te        14.7387266497       19.8795041148       22.5240416283
 Te        23.9439756150       21.2186085162       14.4538418029
 Te        23.8950618696       18.2341909250       17.9270786744
 Te        21.4001197020       22.1445728544       18.1462847381
 Te        23.8348768532       15.3557884150       21.4664791387
 Te        21.3709503361       19.1986422868       21.6782107264
 Te        18.8724905000       23.0498587162       21.8535881923
     149
 i =        4, E =     -3973.5161727980
 Cd        13.2024279865       14.4555400178       11.7648945225
 Cd        13.3664992916       11.6696892458       15.2899654192
 Cd        10.7751837736       15.2507883755       15.3537838949
 Cd        16.8869691982       16.8902160818       10.8519547671
 Cd        16.9458395741       13.9112997595       14.2169893388
 Cd        14.3799070649       17.8340443056       14.4896039989
 Cd        16.9041771221       11.0425331041       17.7597806923
 Cd        14.3846692977       14.8054152519       18.0635218181
 Cd        12.0775239854       18.6941538934       18.2754688577
 Cd        20.5809149668       16.4228185150       13.4084496324
 Cd        18.1272646305       20.2019924083       13.6684707836
 Cd        20.5409218635       13.4988070622       16.8672373366
 Cd        18.2359226030       17.3500987294       17.1252081199
 Cd        15.6787315099       21.0551171087       17.3567079773
 Cd        18.1407562459       14.3550316509       20.5713844964
 Cd        15.7485163800       17.9966909655       20.6393431969
 Cd        12.5417779350       11.2679777200        8.9939703928
 Cd         9.8774040317       15.5183194433        9.4156553818
 Cd        11.9688645604        8.6294588673       12.1431542201
 Cd         9.5958708023       11.6387545177       12.4645730787
 Cd         7.6032401780       16.2052479046       12.9478506121
 Cd         9.8224969206        9.4096437543       16.7217224548
 Cd         7.6042455280       13.0323613209       16.6874697035
 Cd        15.7421823715       13.3855072504        8.0678415563
 Cd        13.0834207537       17.5707616147        8.3910135148
 Cd        15.7519341562       10.3251634459       11.1737860910
 Cd        10.5244338994       18.6298500180       11.7499946949
 Cd        15.4849482740        7.8126675668       14.5305955599
 Cd         8.4536351325       19.2280121899       15.4829895898
 Cd        13.0561009147        8.7663347915       18.8083132165
 Cd        10.4875351781       12.2583612893       19.3002702435
 Cd         8.4371651016       16.0564103776       19.2323257951
 Cd        19.0793490075       15.4531974205        7.5817288961
 Cd        16.3152692255       19.7819686106        7.8706248742
 Cd        19.3818332670       12.6599496588       10.3545716742
 Cd        14.0869494717       20.9671511916       10.9198095788
 Cd        19.3443330016        9.8593826780       13.6470745705
 Cd        11.7324439971       21.8384702215       14.4659767050
 Cd        18.8796958058        7.5960721294       16.8026723989
 Cd         9.8266586969       22.1110875378       17.9467460514
 Cd        16.2668804311        8.6358654219       21.0884678852
 Cd        14.0674724754       11.8299496730       21.7435953082
 Cd        11.6893429742       15.4566847763       22.0048464603
 Cd         9.8283413944       18.9440026672       21.6922276156
 Cd        22.5754659009       14.9888856103       10.0353375031
 Cd        20.3367001759       19.1363302603       10.3030815182
 Cd        17.5001036200       22.9270620783       10.5411264525
 Cd        22.8060352455       12.4445192670       13.0441123235
 Cd        15.4809959711       23.9407179912       13.7815505431
 Cd        22.4833168596        9.9038844561       16.0627433345
 Cd        13.2409308674       24.4709514597       16.9796469142
 Cd        20.2724407016       10.8818597881       20.0937780165
 Cd        13.5184810872       22.1065003121       21.3133962801
 Cd        17.4524432542       11.7735611410       23.7632275592
 Cd        15.4625999774       15.1511975183       24.2007727317
 Cd        13.1675562260       18.2898127511       24.2394913292
 Cd        24.0233140963       18.7874649914       13.2501565864
 Cd        21.7076925662       22.4011128359       13.4604560265
 Cd        24.2098078411       16.1367757033       16.1769634871
 Cd        22.1512606264       19.9683152163       16.5319706058
 Cd        19.5458609821       23.4672720816       16.5962624738
 Cd        23.9331365814       13.7312856648       19.2957987522
 Cd        22.0907357309       17.1907554525       19.8469371253
 Cd        19.7375719547       20.8839959030       20.0938833252
 Cd        17.3634430509       24.0908027510       19.8340858268
 Cd        21.5501820938       14.6942953709       22.7979482507
 Cd        19.3779689434       18.1268434801       23.2566396670
 Cd        16.8724357170       21.6471342820       23.1517704575
 Cl        14.6974509483       23.5694136681       23.0536658282
 Cl        17.2293855616       24.9286387725       12.0040866661
 Cl        11.1587243876       16.1046173627        7.3244056096
 Cl        17.1767641434       13.5458566553       25.4978223155
 Cl         9.3914162177        9.4610888136       11.1246558562
 Cl        25.5296624029       14.1824855334       17.4179252691
 Cl         7.6791251623       18.2203861256       20.5915800412
 Cl        18.4302674350       25.4207639603       17.9635860632
 Cl        14.7195893069        7.0203742643       19.9789924530
 Cl        18.2356943012       19.9398581691       24.7024861544
 Cl        14.8069908784       25.8068983366       15.5246650997
 Cl        13.5364300406       12.4450081049        6.9870486606
 Cl        11.1018705168        7.4377333344       17.6347318390
 Cl         6.4511641075       14.9587766261       17.8330867718
 Cl        20.6531661485       16.0952711723       24.6318961896
 Cl        24.2898203006       10.9308843703       14.6602970590
 Cl        16.9169334477        6.1950011052       16.2564062606
 Cl        24.3499979486       13.7681962480       11.3096548952
 Cl        20.7942975635       24.4957277696       14.4536959713
 Cl         6.4520853613       17.6934357601       14.6163075853
 Cl        13.2900189475        6.8122321818       13.5985309545
 Cl        14.7703723398       18.4054076503        6.4801510424
 Cl        17.1157647036       14.7581129894        6.2166807694
 Cl        25.5732697065       16.9932059015       14.0448037348
 Cl        14.7476848706       17.1144726518       25.8122266758
 Cl         7.6742226646       20.9453944492       17.3661184841
 Te        14.8112408026       12.4822978136       13.0027185609
 Te        12.1205463192       16.6029456183       13.2529206325
 Te        12.1037441953       13.4363347322       17.0799386641
 Te        18.5626650618       14.9522455996       12.0777902484
 Te        15.8855170462       19.0703191360       12.3585268965
 Te        18.5303802372       11.9524020498       15.6135277076
 Te        15.9956833172       15.9713858310       15.9760324470
 Te        13.3876844437       19.9699783609       16.1044947942
 Te        15.8867232478       12.9098456424       19.6388013838
 Te        13.3526146397       16.7315576629       19.8725616375
 Te        19.9226913957       18.5636367409       15.1350233331
 Te        19.8815017528       15.5705956116       18.6798612945
 Te        17.4294771968       19.4338861009       18.8799130532
 Te        13.5554784225        8.8828818985        9.8721067629
 Te        10.9777151783       13.1338881796       10.4467048466
 Te         8.1407749976       17.3375073179       10.4971047724
 Te        11.1078866327       10.1883361280       14.3479155819
 Te         8.4938165320       13.7934478461       14.1133186235
 Te         8.0696992230       10.8309527835       18.2692009120
 Te        17.3192536458       11.3081067569        8.9927318147
 Te        14.7163515462       15.5684433316        9.6063545721
 Te        11.9123186444       19.7898828920        9.5544571321
 Te        17.2852894344        8.3286619617       12.4848364856
 Te         9.4071122852       20.6921012900       13.3315139209
 Te        14.7386294786        9.5983037879       16.6553854085
 Te         9.8368418823       17.3329099574       17.0985284281
 Te        11.8908339148       10.2961097508       20.8003760301
 Te         9.3568884074       14.1753447215       21.0474946982
 Te        21.1177252893       13.7155897283        8.1132237465
 Te        18.4632250671       18.0485119849        8.5743863417
 Te        15.6195477802       22.2948787791        8.6697213310
 Te        21.1030206950       10.7980497501       11.6235816940
 Te        13.1916826548       23.1817262934       12.4265682028
 Te        21.0191121349        7.8138179431       15.1017934923
 Te        10.6599381315       24.0429635587       16.1716478984
 Te        18.4408788247        8.9608456173       19.2845878318
 Te        11.1606192281       20.8643739660       20.0984707773
 Te        15.5723044449        9.8254559667       23.4421320078
 Te        13.1708637974       13.6921018729       23.6674942999
 Te        10.5730351736       17.4849157976       23.9004776347
 Te        22.3836806064       17.5387653132       11.2844653486
 Te        19.7783865243       21.5482690069       11.5502852010
 Te        22.2149137595       14.5875894730       14.8395794451
 Te        17.2539057922       22.3212946211       15.3269927028
 Te        22.3119113261       11.5891787687       18.3499536159
 Te        14.7800664496       23.2649258046       19.0121031174
 Te        19.7716791050       12.5089479539       22.2869041697
 Te        17.2875842272       16.3619911495       22.3700824829
 Te        14.7424314954       19.8821375753       22.5403077247
 Te        23.9626934248       21.2299962160       14.4628220352
 Te        23.9104914767       18.2459040607       17.9360320116
 Te        21.4161936987       22.1525340653       18.1561485609
 Te        23.8554352486       15.3663380938       21.4761071494
 Te        21.3895949293       19.2104033553       21.6840879372
 Te        18.8890559055       23.0645364257       21.8611666103
     149
 i =        5, E =     -3973.5175980561
 Cd        13.1964198298       14.4533411349       11.7558334961
 Cd        13.3650109404       11.6613520886       15.2915921688
 Cd        10.7637661285       15.2506175547       15.3518921934
 Cd        16.8893110565       16.8934494174       10.8370211219
 Cd        16.9486764923       13.9090651018       14.2142359940
 Cd        14.3785347579       17.8356538638       14.4875946443
 Cd        16.9102916484       11.0248287952       17.7684583175
 Cd        14.3838730174       14.8038632475       18.0649286226
 Cd        12.0688030721       18.7021321347       18.2802587272
 Cd        20.5957498640       16.4245669869       13.3986142226
 Cd        18.1344464153       20.2146199447       13.6604234854
 Cd        20.5563549091       13.4905538365       16.8706928187
 Cd        18.2391585082       17.3503091740       17.1260241023
 Cd        15.6782528966       21.0661243629       17.3582849677
 Cd        18.1510970810       14.3467256707       20.5858810684
 Cd        15.7501824953       17.9951084464       20.6485187090
 Cd        12.5483865289       11.2677425948        8.9876971635
 Cd         9.8791960403       15.5241954178        9.4091169583
 Cd        11.9785945565        8.6221084740       12.1424796072
 Cd         9.5891867109       11.6295744628       12.4581481689
 Cd         7.5979055457       16.2152413523       12.9473737121
 Cd         9.8246318615        9.4028553009       16.7278553413
 Cd         7.5991534702       13.0348782190       16.6948878196
 Cd        15.7433732488       13.3794836308        8.0580648142
 Cd        13.0779950729       17.5738937877        8.3824810337
 Cd        15.7579699751       10.3104280693       11.1611793852
 Cd        10.5145392681       18.6412048736       11.7405958182
 Cd        15.4838941115        7.8000292399       14.5228632460
 Cd         8.4433763714       19.2333757766       15.4807505090
 Cd        13.0496739869        8.7563816635       18.8129942403
 Cd        10.4772298891       12.2510732079       19.3141775374
 Cd         8.4276245485       16.0556716586       19.2378613272
 Cd        19.0770129379       15.4414011257        7.5759418239
 Cd        16.3028242398       19.7840447981        7.8652603774
 Cd        19.3872183517       12.6484421384       10.3462744349
 Cd        14.0771927863       20.9778703037       10.9129416141
 Cd        19.3496486672        9.8498595647       13.6375147917
 Cd        11.7222111322       21.8492245098       14.4558258451
 Cd        18.8781504038        7.5883277541       16.7897996978
 Cd         9.8176007908       22.1144871184       17.9393693188
 Cd        16.2558841879        8.6317248225       21.0902601481
 Cd        14.0574920362       11.8247973513       21.7528375373
 Cd        11.6795671597       15.4486451296       22.0188463102
 Cd         9.8200562960       18.9400642275       21.6938987032
 Cd        22.5811166943       14.9762847591       10.0332367462
 Cd        20.3362481899       19.1357027780       10.3031760292
 Cd        17.4914222916       22.9378331985       10.5407428433
 Cd        22.8150457516       12.4370478000       13.0398213863
 Cd        15.4779455559       23.9513452661       13.7783371319
 Cd        22.4884983031        9.8994298434       16.0512276133
 Cd        13.2413812321       24.4744891250       16.9718704737
 Cd        20.2723860322       10.8824562342       20.0921172006
 Cd        13.5200378113       22.1149258177       21.3209400668
 Cd        17.4429749918       11.7770288226       23.7698837786
 Cd        15.4585788195       15.1485512312       24.2124763158
 Cd        13.1690414627       18.2861513154       24.2470006567
 Cd        24.0327618338       18.7880890972       13.2588326404
 Cd        21.7119515915       22.4074873119       13.4708884217
 Cd        24.2209566630       16.1396626135       16.1782625024
 Cd        22.1629742579       19.9755421885       16.5399211145
 Cd        19.5524862960       23.4763635347       16.5996750420
 Cd        23.9423960425       13.7401541349       19.2939914842
 Cd        22.1041447746       17.1984599651       19.8521738024
 Cd        19.7521396772       20.8939104975       20.1014429341
 Cd        17.3708412322       24.0941336879       19.8314281514
 Cd        21.5559761400       14.7078652657       22.8024672585
 Cd        19.3841625860       18.1360588567       23.2656246816
 Cd        16.8830147629       21.6467849940       23.1570929811
 Cl        14.6976341579       23.5775989708       23.0595424349
 Cl        17.2303366636       24.9338293257       12.0071470474
 Cl        11.1604503134       16.1054299322        7.3198820682
 Cl        17.1767406257       13.5498618348       25.5009824219
 Cl         9.3863319171        9.4556299900       11.1187679647
 Cl        25.5338007406       14.1822689123       17.4132895713
 Cl         7.6754719603       18.2196180077       20.5898709801
 Cl        18.4323581767       25.4247568294       17.9611237105
 Cl        14.7165214108        7.0174489873       19.9764064160
 Cl        18.2380819751       19.9405313666       24.7097196273
 Cl        14.8099851589       25.8107543627       15.5232922208
 Cl        13.5375342869       12.4466409796        6.9815381158
 Cl        11.1019226267        7.4325372618       17.6363275936
 Cl         6.4492009330       14.9620311373       17.8349399255
 Cl        20.6510048356       16.0967122061       24.6365810776
 Cl        24.2958796604       10.9325131247       14.6581950650
 Cl        16.9121238669        6.1908421745       16.2576351588
 Cl        24.3548405595       13.7662099717       11.3120909445
 Cl        20.7923796846       24.5007455451       14.4546341704
 Cl         6.4482589710       17.6958225164       14.6200979711
 Cl        13.2892611656        6.8035191191       13.5994003876
 Cl        14.7674924885       18.4015627494        6.4757927771
 Cl        17.1117565708       14.7572983476        6.2123963916
 Cl        25.5775102364       16.9890399856       14.0448333112
 Cl        14.7491167740       17.1132439757       25.8163232637
 Cl         7.6690754791       20.9431489138       17.3664898224
 Te        14.8094997083       12.4775737561       12.9978845852
 Te        12.1139581824       16.6038681877       13.2486084416
 Te        12.0969328429       13.4336941657       17.0811069089
 Te        18.5679862145       14.9533984949       12.0705740632
 Te        15.8876594371       19.0748934427       12.3524656212
 Te        18.5347414319       11.9461688794       15.6170601751
 Te        15.9965555053       15.9706250120       15.9753399127
 Te        13.3834930071       19.9757416056       16.1049387326
 Te        15.8900004420       12.9042481737       19.6439393688
 Te        13.3476466570       16.7331134670       19.8771742288
 Te        19.9283487231       18.5664961094       15.1309716606
 Te        19.8883837579       15.5667938223       18.6852539056
 Te        17.4304239416       19.4381508188       18.8838011313
 Te        13.5522450748        8.8799548862        9.8684625367
 Te        10.9693304516       13.1320528163       10.4323425198
 Te         8.1362770540       17.3410883275       10.4947712290
 Te        11.0985872611       10.1751661312       14.3526602089
 Te         8.4798119806       13.7944974159       14.1154676147
 Te         8.0655105557       10.8293389485       18.2739010470
 Te        17.3211054600       11.3037016665        8.9831125621
 Te        14.7143238099       15.5683072509        9.5932812838
 Te        11.9077926147       19.7942210401        9.5462022504
 Te        17.2869055114        8.3191910453       12.4807389014
 Te         9.3973912493       20.6963351632       13.3298171739
 Te        14.7370805562        9.5851193758       16.6581743937
 Te         9.8251273649       17.3357594763       17.1015963053
 Te        11.8854150157       10.2888808719       20.8051763173
 Te         9.3493604785       14.1742671778       21.0522443277
 Te        21.1219024306       13.7091695988        8.1076258789
 Te        18.4630051964       18.0490307103        8.5595903692
 Te        15.6150554028       22.3010141106        8.6648976538
 Te        21.1104173783       10.7921276355       11.6193122126
 Te        13.1889441500       23.1908605220       12.4231347977
 Te        21.0200150970        7.8079432868       15.0957960280
 Te        10.6560040178       24.0464825063       16.1679480763
 Te        18.4406908784        8.9457430240       19.2900968509
 Te        11.1472598353       20.8690721270       20.1034570837
 Te        15.5655073342        9.8223855551       23.4480302350
 Te        13.1667197499       13.6885540072       23.6763064563
 Te        10.5695670105       17.4823535761       23.9046906104
 Te        22.3970715319       17.5386751134       11.2782986495
 Te        19.7831382297       21.5606190603       11.5458590528
 Te        22.2271687078       14.5852117997       14.8371435597
 Te        17.2569766134       22.3341636223       15.3242480846
 Te        22.3249456682       11.5840937934       18.3499828676
 Te        14.7794659069       23.2807029467       19.0135990153
 Te        19.7761080222       12.5042267123       22.3018230997
 Te        17.2905871660       16.3597126323       22.3839002762
 Te        14.7405613514       19.8828099346       22.5574941963
 Te        23.9694374574       21.2335690238       14.4665219900
 Te        23.9206997745       18.2484701439       17.9374249064
 Te        21.4211886318       22.1599300739       18.1585113315
 Te        23.8617600390       15.3706288894       21.4807378518
 Te        21.3963709493       19.2145593073       21.6914691479
 Te        18.8892315048       23.0689659762       21.8647419168
     149
 i =        6, E =     -3973.5186536620
 Cd        13.1910308017       14.4521272088       11.7434559754
 Cd        13.3601466122       11.6474579922       15.2928526845
 Cd        10.7509077863       15.2538333205       15.3530382985
 Cd        16.8885977416       16.8952692738       10.8205221554
 Cd        16.9530565923       13.9046846991       14.2098111598
 Cd        14.3761454587       17.8392027778       14.4836093101
 Cd        16.9129802825       11.0050125852       17.7766680210
 Cd        14.3814210612       14.8009188039       18.0687194898
 Cd        12.0563569409       18.7079995280       18.2834194747
 Cd        20.6131688767       16.4237497050       13.3906310736
 Cd        18.1408377686       20.2306027110       13.6538040823
 Cd        20.5745799042       13.4840825025       16.8713199921
 Cd        18.2449945099       17.3513558025       17.1278211554
 Cd        15.6794495026       21.0801595812       17.3577727524
 Cd        18.1600938521       14.3405780698       20.6031870884
 Cd        15.7511878875       17.9951153904       20.6640465519
 Cd        12.5497410781       11.2725375451        8.9840094297
 Cd         9.8800548228       15.5269402707        9.4048404333
 Cd        11.9838518064        8.6169290260       12.1500765709
 Cd         9.5859042844       11.6241249252       12.4538692906
 Cd         7.5931832861       16.2193590918       12.9495709835
 Cd         9.8237676580        9.3987393369       16.7339481198
 Cd         7.5946998856       13.0368146546       16.6986831906
 Cd        15.7425853871       13.3783153852        8.0494047277
 Cd        13.0751315525       17.5738874799        8.3746565596
 Cd        15.7648266301       10.2951127142       11.1474396906
 Cd        10.5043326543       18.6531502907       11.7309617794
 Cd        15.4817004258        7.7871159557       14.5215131039
 Cd         8.4339036436       19.2350724379       15.4825716414
 Cd        13.0451550005        8.7470092216       18.8149837636
 Cd        10.4652185857       12.2434711297       19.3298729595
 Cd         8.4193220387       16.0570882570       19.2407149244
 Cd        19.0742698442       15.4357175097        7.5728224260
 Cd        16.2956755165       19.7835666362        7.8611634305
 Cd        19.3926784766       12.6368708352       10.3379978965
 Cd        14.0669412149       20.9890632445       10.9058334627
 Cd        19.3547283010        9.8402358595       13.6279856960
 Cd        11.7114140651       21.8604418227       14.4451396402
 Cd        18.8745703580        7.5838043119       16.7839701047
 Cd         9.8106875417       22.1157748973       17.9382330632
 Cd        16.2486898217        8.6292797276       21.0911527432
 Cd        14.0472371119       11.8193427537       21.7624829216
 Cd        11.6682772450       15.4408159649       22.0348511446
 Cd         9.8139404699       18.9396820207       21.6956273339
 Cd        22.5860309375       14.9694125443       10.0335323330
 Cd        20.3333592783       19.1339938248       10.3047746949
 Cd        17.4877677057       22.9458050311       10.5413057413
 Cd        22.8246908036       12.4335105199       13.0388489987
 Cd        15.4783474549       23.9598636226       13.7774986997
 Cd        22.4930803417        9.8975868096       16.0450186201
 Cd        13.2423363376       24.4766916490       16.9684441438
 Cd        20.2698239913       10.8844530865       20.0901478724
 Cd        13.5227363536       22.1191812877       21.3241820305
 Cd        17.4367249565       11.7795753837       23.7725063959
 Cd        15.4568070424       15.1472544135       24.2232717661
 Cd        13.1680078163       18.2846700686       24.2530001331
 Cd        24.0381965661       18.7866393020       13.2623496854
 Cd        21.7121458380       22.4110343568       13.4763209949
 Cd        24.2299343026       16.1394879983       16.1760628693
 Cd        22.1748648262       19.9829580729       16.5486473592
 Cd        19.5548170722       23.4850803027       16.5996284549
 Cd        23.9482630667       13.7442587568       19.2916666926
 Cd        22.1172150312       17.2075216557       19.8570750661
 Cd        19.7677777471       20.9045457580       20.1090673311
 Cd        17.3717184398       24.0967068692       19.8274605757
 Cd        21.5562732067       14.7148138366       22.8064032840
 Cd        19.3865434452       18.1397956055       23.2750771881
 Cd        16.8861401985       21.6413665717       23.1636713530
 Cl        14.7003630110       23.5826614806       23.0642583428
 Cl        17.2291799655       24.9394260416       12.0109014166
 Cl        11.1619246218       16.1081933138        7.3155749650
 Cl        17.1747111860       13.5542557626       25.5042133389
 Cl         9.3853251296        9.4500630044       11.1144610171
 Cl        25.5378613676       14.1841403762       17.4085643835
 Cl         7.6713878377       18.2165001249       20.5885513134
 Cl        18.4362641603       25.4276087255       17.9596812782
 Cl        14.7113108738        7.0146788085       19.9739712227
 Cl        18.2417685815       19.9429994667       24.7159603347
 Cl        14.8118050086       25.8140630971       15.5207228327
 Cl        13.5404573249       12.4468264868        6.9766787374
 Cl        11.1013757638        7.4267687123       17.6396875199
 Cl         6.4478398315       14.9655251213       17.8393722834
 Cl        20.6480571667       16.1016822181       24.6396960065
 Cl        24.3014951432       10.9334275448       14.6547266590
 Cl        16.9063373508        6.1883255154       16.2559766167
 Cl        24.3591253216       13.7619681011       11.3150655928
 Cl        20.7907801393       24.5050265265       14.4579799868
 Cl         6.4451629983       17.7001297803       14.6233507867
 Cl        13.2893318162        6.7954094583       13.5979883513
 Cl        14.7624237281       18.3979536036        6.4721567965
 Cl        17.1076581902       14.7542997320        6.2089354235
 Cl        25.5819095560       16.9852044608       14.0466728394
 Cl        14.7494863085       17.1102724146       25.8208364124
 Cl         7.6640380053       20.9410121049       17.3648439847
 Te        14.8058854156       12.4705355572       12.9914598900
 Te        12.1050503235       16.6048363632       13.2421073290
 Te        12.0887946027       13.4289501502       17.0813884889
 Te        18.5750917622       14.9550410891       12.0601209212
 Te        15.8909163634       19.0818011785       12.3434777447
 Te        18.5414926205       11.9371347334       15.6220915734
 Te        15.9980142331       15.9698955392       15.9740258711
 Te        13.3782548200       19.9847526272       16.1056325165
 Te        15.8954491927       12.8962109841       19.6516095624
 Te        13.3423267761       16.7363103462       19.8840351669
 Te        19.9366426545       18.5709409186       15.1246737574
 Te        19.8986180683       15.5615978611       18.6926112690
 Te        17.4312767452       19.4444446604       18.8902204940
 Te        13.5465761255        8.8803474662        9.8658136009
 Te        10.9575012407       13.1261167789       10.4168217478
 Te         8.1364889879       17.3396589868       10.4926904957
 Te        11.0878900619       10.1614566339       14.3487047397
 Te         8.4627989019       13.7929771995       14.1132250830
 Te         8.0662899080       10.8281045739       18.2723249667
 Te        17.3211953489       11.3019013185        8.9724251117
 Te        14.7117102243       15.5673197543        9.5781849962
 Te        11.9053662302       19.7951261483        9.5361846610
 Te        17.2871767680        8.3081533358       12.4795075176
 Te         9.3860776044       20.6988231233       13.3307265446
 Te        14.7351802031        9.5688364961       16.6596859833
 Te         9.8108434969       17.3399112678       17.1046230964
 Te        11.8821375456       10.2786938006       20.8071328275
 Te         9.3392122426       14.1763585848       21.0548854608
 Te        21.1243393546       13.7057861356        8.1042474896
 Te        18.4669242197       18.0520628916        8.5435183364
 Te        15.6135888717       22.3036136163        8.6624136734
 Te        21.1201882963       10.7885709521       11.6169198967
 Te        13.1895313849       23.2018093128       12.4215992948
 Te        21.0210251975        7.8056542459       15.0912021365
 Te        10.6572609290       24.0479542670       16.1669702591
 Te        18.4459943805        8.9289430346       19.2963785766
 Te        11.1333697742       20.8800261881       20.1111468214
 Te        15.5620681409        9.8216807770       23.4491997848
 Te        13.1663571667       13.6863655697       23.6866157271
 Te        10.5717927342       17.4836944476       23.9050787016
 Te        22.4114300405       17.5411139224       11.2681121854
 Te        19.7908680538       21.5728105085       11.5370022966
 Te        22.2421658345       14.5820160414       14.8339373039
 Te        17.2607985793       22.3491797633       15.3217412696
 Te        22.3392667449       11.5751686155       18.3533590784
 Te        14.7778611507       23.2997133290       19.0188915122
 Te        19.7856675627       12.4967301797       22.3162676384
 Te        17.2952309969       16.3586788311       22.4004426586
 Te        14.7406115170       19.8920984494       22.5735713718
 Te        23.9728058090       21.2351776747       14.4688093285
 Te        23.9318726780       18.2481975967       17.9365065271
 Te        21.4243580964       22.1698394607       18.1588033713
 Te        23.8664479696       15.3724222024       21.4817467578
 Te        21.4011431793       19.2171376276       21.7008250695
 Te        18.8854589372       23.0730401000       21.8661302152
     149
 i =        7, E =     -3973.5191814082
 Cd        13.1877778644       14.4508301119       11.7348596401
 Cd        13.3541904457       11.6351313508       15.2917749584
 Cd        10.7434688808       15.2576578284       15.3553195580
 Cd        16.8864421117       16.8954657746       10.8100870593
 Cd        16.9566362191       13.8992303232       14.2054498475
 Cd        14.3738374723       17.8433592815       14.4792679758
 Cd        16.9119444956       10.9929940652       17.7800604993
 Cd        14.3787961567       14.7979180959       18.0732598947
 Cd        12.0480608074       18.7101339962       18.2841835593
 Cd        20.6243389290       16.4217193061       13.3875645134
 Cd        18.1441345711       20.2414992696       13.6510213405
 Cd        20.5855344223       13.4818174369       16.8700022004
 Cd        18.2509337615       17.3532705535       17.1304470974
 Cd        15.6811177793       21.0893253427       17.3573326264
 Cd        18.1642418818       14.3392815878       20.6142834966
 Cd        15.7510397134       17.9976765838       20.6767584208
 Cd        12.5476514896       11.2755874843        8.9835293128
 Cd         9.8811961356       15.5238640048        9.4034032347
 Cd        11.9862873057        8.6135134495       12.1533919993
 Cd         9.5853222707       11.6251559695       12.4512627548
 Cd         7.5908185891       16.2182791577       12.9509673069
 Cd         9.8252525107        9.3963598349       16.7318896797
 Cd         7.5926885057       13.0387159661       16.6961533294
 Cd        15.7416481554       13.3799758101        8.0453898487
 Cd        13.0754320742       17.5716877486        8.3706825021
 Cd        15.7685611510       10.2868357005       11.1384070006
 Cd        10.4990580191       18.6604565705       11.7254485990
 Cd        15.4809327363        7.7796533398       14.5239327216
 Cd         8.4297134148       19.2346015855       15.4851922623
 Cd        13.0446934875        8.7425754901       18.8126168743
 Cd        10.4592454655       12.2400025904       19.3396548097
 Cd         8.4161479364       16.0597739324       19.2399852914
 Cd        19.0732260621       15.4366650197        7.5735331015
 Cd        16.2960375517       19.7812696931        7.8601164223
 Cd        19.3957126085       12.6302669159       10.3333802256
 Cd        14.0613916599       20.9950304745       10.9017690563
 Cd        19.3569274765        9.8351860972       13.6231320958
 Cd        11.7053918390       21.8667948661       14.4389754938
 Cd        18.8731835380        7.5842924416       16.7841127737
 Cd         9.8084990162       22.1168396842       17.9407027816
 Cd        16.2493918781        8.6287703348       21.0883373865
 Cd        14.0416580253       11.8167783838       21.7670995423
 Cd        11.6623091788       15.4362236147       22.0432387358
 Cd         9.8122975517       18.9440701329       21.6948923269
 Cd        22.5872762089       14.9698136358       10.0346947604
 Cd        20.3303045158       19.1316566657       10.3076524603
 Cd        17.4896583765       22.9475116074       10.5421303039
 Cd        22.8296269122       12.4334057515       13.0400530929
 Cd        15.4808806420       23.9631636771       13.7787749676
 Cd        22.4946423667        9.8983489189       16.0457866410
 Cd        13.2444677014       24.4775073898       16.9704048606
 Cd        20.2672625897       10.8872050182       20.0874489582
 Cd        13.5241985447       22.1203360113       21.3217946368
 Cd        17.4379104633       11.7817366645       23.7699842924
 Cd        15.4581732428       15.1480940446       24.2280240496
 Cd        13.1709349194       18.2886013968       24.2543704361
 Cd        24.0377241049       18.7852763390       13.2605857553
 Cd        21.7100432162       22.4100738137       13.4758661079
 Cd        24.2334921512       16.1379256007       16.1731966227
 Cd        22.1809402130       19.9870190933       16.5540025760
 Cd        19.5540840122       23.4894819314       16.5978568107
 Cd        23.9483388901       13.7423981573       19.2897144211
 Cd        22.1239046749       17.2136925686       19.8592345088
 Cd        19.7760487995       20.9107186440       20.1135826762
 Cd        17.3691235918       24.0979125111       19.8262743102
 Cd        21.5549320325       14.7146705747       22.8065477530
 Cd        19.3863584362       18.1386796291       23.2796044738
 Cd        16.8878132695       21.6401476056       23.1680354990
 Cl        14.7038551636       23.5832989089       23.0656487576
 Cl        17.2274879044       24.9435793391       12.0123354563
 Cl        11.1613064364       16.1109044068        7.3123588280
 Cl        17.1726202736       13.5553558817       25.5065678444
 Cl         9.3878056805        9.4470559688       11.1129225420
 Cl        25.5410694760       14.1861220211       17.4065126246
 Cl         7.6683224815       18.2140677985       20.5897960453
 Cl        18.4399074225       25.4300386131       17.9603736819
 Cl        14.7074501963        7.0124113314       19.9738864402
 Cl        18.2455516430       19.9462197059       24.7203517205
 Cl        14.8113960020       25.8166787714       15.5188696166
 Cl        13.5427560502       12.4451141601        6.9730999646
 Cl        11.0990525535        7.4225726803       17.6425665018
 Cl         6.4461694720       14.9664238634       17.8435148063
 Cl        20.6468729545       16.1065274806       24.6408889138
 Cl        24.3054990864       10.9321018287       14.6523550906
 Cl        16.9030862191        6.1867174642       16.2534323516
 Cl        24.3622427577       13.7582183377       11.3158362825
 Cl        20.7912711321       24.5073892434       14.4606749232
 Cl         6.4423239563       17.7034302436       14.6238384273
 Cl        13.2897704827        6.7891155986       13.5953240573
 Cl        14.7585772289       18.3969864554        6.4696517522
 Cl        17.1064580249       14.7513738708        6.2064727421
 Cl        25.5856290289       16.9842208818       14.0478725737
 Cl        14.7478123469       17.1082868501       25.8246897768
 Cl         7.6605186706       20.9414465368       17.3632859872
 Te        14.8019060853       12.4651172742       12.9875785133
 Te        12.0981739755       16.6049302020       13.2371317571
 Te        12.0829330570       13.4240852619       17.0807888763
 Te        18.5805909758       14.9567654870       12.0520937647
 Te        15.8938542237       19.0876593518       12.3361774953
 Te        18.5469983461       11.9301979156       15.6266490925
 Te        15.9991370389       15.9694232615       15.9730921438
 Te        13.3746274943       19.9921610629       16.1067972880
 Te        15.8997186327       12.8899051592       19.6582173183
 Te        13.3390897599       16.7396452875       19.8901970750
 Te        19.9431714765       18.5747925694       15.1192355638
 Te        19.9064146079       15.5572859368       18.6982631315
 Te        17.4307962727       19.4489921225       18.8958759024
 Te        13.5384834860        8.8841223090        9.8672558734
 Te        10.9468121922       13.1223561449       10.4093894478
 Te         8.1371761406       17.3353881717       10.4939508202
 Te        11.0793974330       10.1553473847       14.3487664530
 Te         8.4518887761       13.7880078213       14.1093390180
 Te         8.0657750271       10.8288602202       18.2694084542
 Te        17.3203951692       11.3029026369        8.9647955585
 Te        14.7095819916       15.5665135178        9.5702317535
 Te        11.9049045863       19.7939992194        9.5291516361
 Te        17.2857483715        8.2999454634       12.4815576739
 Te         9.3776458617       20.6991420696       13.3332571022
 Te        14.7333125164        9.5592299684       16.6601427913
 Te         9.8027133602       17.3420872650       17.1068282655
 Te        11.8809008760       10.2712357320       20.8075248778
 Te         9.3308072930       14.1792804821       21.0566035428
 Te        21.1246827290       13.7081741528        8.1045452199
 Te        18.4729455260       18.0568203535        8.5331730647
 Te        15.6163199176       22.3021631815        8.6627010614
 Te        21.1277864019       10.7883741112       11.6170175350
 Te        13.1915786019       23.2098229064       12.4213866555
 Te        21.0203804887        7.8067713815       15.0921719616
 Te        10.6592653564       24.0465379039       16.1700776927
 Te        18.4533965744        8.9175627204       19.3034164187
 Te        11.1266859624       20.8900530130       20.1196006226
 Te        15.5625217837        9.8224481812       23.4475740814
 Te        13.1676246952       13.6855093227       23.6938812848
 Te        10.5728788135       17.4871649903       23.9041280784
 Te        22.4196058231       17.5460275490       11.2576432627
 Te        19.7980978928       21.5791775044       11.5267664495
 Te        22.2510496509       14.5801717767       14.8318759633
 Te        17.2627545850       22.3573500461       15.3207559980
 Te        22.3475702015       11.5658963731       18.3598904204
 Te        14.7739591329       23.3112050186       19.0240139265
 Te        19.7943462684       12.4877738076       22.3250524029
 Te        17.2973224975       16.3583246710       22.4102666906
 Te        14.7373602979       19.8963049445       22.5821267751
 Te        23.9711649062       21.2340146514       14.4672333431
 Te        23.9394831326       18.2459003792       17.9341292573
 Te        21.4254115504       22.1782729005       18.1571217377
 Te        23.8651608136       15.3701344291       21.4813969595
 Te        21.4019839920       19.2174797413       21.7087442479
 Te        18.8774057736       23.0742771250       21.8663027481
     149
 i =        8, E =     -3973.5194326448
 Cd        13.1852165373       14.4489142751       11.7312534402
 Cd        13.3490300991       11.6273890799       15.2894636071
 Cd        10.7406524113       15.2592019718       15.3565852742
 Cd        16.8854210255       16.8958589138       10.8049029141
 Cd        16.9587215592       13.8944214798       14.2020913282
 Cd        14.3719979626       17.8471627120       14.4756002272
 Cd        16.9101851734       10.9867491249       17.7811393339
 Cd        14.3762141378       14.7957224309       18.0772557406
 Cd        12.0450957029       18.7112985959       18.2848188555
 Cd        20.6295222814       16.4208615487       13.3863009575
 Cd        18.1460968796       20.2466898860       13.6493737288
 Cd        20.5901882290       13.4811816326       16.8693241293
 Cd        18.2554194927       17.3554704414       17.1329542119
 Cd        15.6817359415       21.0933134306       17.3584956882
 Cd        18.1660374973       14.3396314519       20.6202514622
 Cd        15.7500310413       18.0010202521       20.6840531283
 Cd        12.5434468626       11.2786732609        8.9832244134
 Cd         9.8806426140       15.5215791858        9.4025397552
 Cd        11.9845467919        8.6114427562       12.1569739116
 Cd         9.5848138207       11.6268769150       12.4505955819
 Cd         7.5893995977       16.2146881109       12.9525995893
 Cd         9.8238409418        9.3951573924       16.7317344222
 Cd         7.5916481491       13.0392987950       16.6927036867
 Cd        15.7409338402       13.3820896156        8.0434474601
 Cd        13.0762415651       17.5700937616        8.3686939135
 Cd        15.7704146387       10.2836938631       11.1341112464
 Cd        10.4970610259       18.6642987492       11.7231320045
 Cd        15.4806702896        7.7756704372       14.5270037334
 Cd         8.4280177744       19.2337783109       15.4874237112
 Cd        13.0447734250        8.7412346088       18.8101027326
 Cd        10.4569787042       12.2395523727       19.3441672312
 Cd         8.4153494520       16.0614503218       19.2394939203
 Cd        19.0724666110       15.4405038086        7.5756013967
 Cd        16.2991408669       19.7786312451        7.8603196645
 Cd        19.3970847362       12.6273223898       10.3316307788
 Cd        14.0591490422       20.9974695852       10.9001001413
 Cd        19.3568926320        9.8335835039       13.6212865851
 Cd        11.7027509811       21.8693689028       14.4359938819
 Cd        18.8721990544        7.5870496603       16.7873385263
 Cd         9.8081991152       22.1170180218       17.9451394232
 Cd        16.2522155225        8.6293022353       21.0854166175
 Cd        14.0391142373       11.8160183152       21.7686327836
 Cd        11.6599502713       15.4343897391       22.0459964901
 Cd         9.8123859120       18.9485216658       21.6948275115
 Cd        22.5872944467       14.9730820287       10.0367157473
 Cd        20.3276371342       19.1295546197       10.3105764506
 Cd        17.4934364906       22.9466569469       10.5431602310
 Cd        22.8323462796       12.4341169478       13.0415068607
 Cd        15.4829389032       23.9641550517       13.7799314042
 Cd        22.4948060965        9.9001471234       16.0492292519
 Cd        13.2452192169       24.4787673236       16.9727958374
 Cd        20.2643815548       10.8896476942       20.0854033201
 Cd        13.5243067976       22.1200419969       21.3194628972
 Cd        17.4409352818       11.7828084959       23.7660191632
 Cd        15.4591275025       15.1489647082       24.2298908575
 Cd        13.1706717424       18.2914541401       24.2557511241
 Cd        24.0349721619       18.7835905463       13.2567565415
 Cd        21.7068110737       22.4076845857       13.4729828232
 Cd        24.2350753229       16.1364257460       16.1709369000
 Cd        22.1826904991       19.9885592483       16.5568197544
 Cd        19.5527741020       23.4918479947       16.5960426708
 Cd        23.9461331936       13.7387065682       19.2881631407
 Cd        22.1263082934       17.2175978682       19.8597092229
 Cd        19.7788939143       20.9129074841       20.1152833073
 Cd        17.3649714662       24.0996903647       19.8256371322
 Cd        21.5519442702       14.7114608086       22.8054729170
 Cd        19.3850105053       18.1363848032       23.2815856583
 Cd        16.8855854641       21.6396005454       23.1721746180
 Cl        14.7071803459       23.5815742367       23.0649197742
 Cl        17.2264721666       24.9462776619       12.0111892288
 Cl        11.1586204127       16.1125981546        7.3098066223
 Cl        17.1716038536       13.5533494606       25.5084225018
 Cl         9.3916864282        9.4462158047       11.1130934390
 Cl        25.5434509864       14.1870018528       17.4072245495
 Cl         7.6658896370       18.2136262592       20.5930414303
 Cl        18.4424292723       25.4326382469       17.9629295488
 Cl        14.7057758273        7.0104206794       19.9758240778
 Cl        18.2489315689       19.9497310250       24.7236779061
 Cl        14.8095331208       25.8193883975       15.5183912122
 Cl        13.5435491438       12.4420527501        6.9705812416
 Cl        11.0953458028        7.4191997642       17.6446213088
 Cl         6.4435909878       14.9652747762       17.8461881551
 Cl        20.6478894247       16.1092923330       24.6411706072
 Cl        24.3080801215       10.9288843195       14.6517928122
 Cl        16.9029454931        6.1848717933       16.2518333016
 Cl        24.3642401361       13.7560834152       11.3142093864
 Cl        20.7936661667       24.5083316763       14.4613917906
 Cl         6.4392482631       17.7049346732       14.6222491943
 Cl        13.2899447222        6.7838181160       13.5921980840
 Cl        14.7569533398       18.3982872838        6.4674714819
 Cl        17.1080844845       14.7495514200        6.2043892865
 Cl        25.5885090713       16.9858615553       14.0474506285
 Cl        14.7449386086       17.1077168129       25.8286369118
 Cl         7.6581949012       20.9441591545       17.3629364932
 Te        14.7988634547       12.4613815921       12.9858445890
 Te        12.0945486272       16.6045210275       13.2341669192
 Te        12.0803260434       13.4205186747       17.0799439889
 Te        18.5837853167       14.9580802334       12.0475378126
 Te        15.8962038490       19.0914387765       12.3315359282
 Te        18.5504092214       11.9260136393       15.6296505141
 Te        16.0001781067       15.9690909577       15.9724801052
 Te        13.3729459516       19.9966179940       16.1078708940
 Te        15.9025065767       12.8860955813       19.6623522457
 Te        13.3378637017       16.7418003077       19.8940639246
 Te        19.9469764509       18.5773974458       15.1158198646
 Te        19.9109422184       15.5547285060       18.7016381352
 Te        17.4300201315       19.4513940828       18.8998768027
 Te        13.5334603158        8.8861246219        9.8674919663
 Te        10.9410493400       13.1197312776       10.4073372489
 Te         8.1373130507       17.3309170965       10.4946973810
 Te        11.0748702401       10.1542453234       14.3454617070
 Te         8.4470070507       13.7835856193       14.1048391109
 Te         8.0651839983       10.8292815673       18.2652013100
 Te        17.3204900483       11.3034038901        8.9601581014
 Te        14.7082139564       15.5654635143        9.5687023738
 Te        11.9048404549       19.7933822201        9.5250167921
 Te        17.2843996461        8.2956487240       12.4828478088
 Te         9.3728457550       20.6997088049       13.3344414237
 Te        14.7327377807        9.5560255363       16.6591435763
 Te         9.8006878463       17.3430496010       17.1074985312
 Te        11.8806423555       10.2665949482       20.8075986925
 Te         9.3251392271       14.1812226571       21.0586762798
 Te        21.1247621649       13.7120997950        8.1054334746
 Te        18.4788620860       18.0611000548        8.5268346844
 Te        15.6205135656       22.2997572620        8.6633850796
 Te        21.1313876380       10.7883060713       11.6174876408
 Te        13.1928575133       23.2144928057       12.4208968007
 Te        21.0201484963        7.8083533373       15.0954476244
 Te        10.6606695272       24.0461661682       16.1739099814
 Te        18.4613626008        8.9102787951       19.3090506848
 Te        11.1253373349       20.8978457751       20.1250439912
 Te        15.5658334754        9.8232670705       23.4445626135
 Te        13.1686201799       13.6850446629       23.6981874400
 Te        10.5741109813       17.4922503048       23.9034474898
 Te        22.4240898532       17.5508610535       11.2488699260
 Te        19.8040812167       21.5821040553       11.5177466786
 Te        22.2542202292       14.5794595630       14.8312006615
 Te        17.2631937012       22.3591181568       15.3213469742
 Te        22.3522201853       11.5581312198       18.3661101976
 Te        14.7714223751       23.3157295029       19.0274680254
 Te        19.8021574926       12.4798048756       22.3296517744
 Te        17.2975769716       16.3585848600       22.4131886492
 Te        14.7362137333       19.9008284273       22.5835383771
 Te        23.9686127948       21.2323438661       14.4641122425
 Te        23.9437515972       18.2447953471       17.9326791435
 Te        21.4263792536       22.1835560662       18.1563605771
 Te        23.8627253897       15.3662706489       21.4802314153
 Te        21.4020362924       19.2179452199       21.7133277665
 Te        18.8729413646       23.0758189827       21.8665214499
     149
 i =        9, E =     -3973.5195623123
 Cd        13.1828619764       14.4462719418       11.7316358328
 Cd        13.3452918167       11.6242034188       15.2865412461
 Cd        10.7408576207       15.2582429516       15.3562777827
 Cd        16.8862437212       16.8968289436       10.8028153219
 Cd        16.9593355239       13.8911935920       14.2001749967
 Cd        14.3712305941       17.8497216658       14.4732628254
 Cd        16.9099347103       10.9840589099       17.7820584433
 Cd        14.3748668300       14.7945393381       18.0797476323
 Cd        12.0460227698       18.7127579543       18.2860997701
 Cd        20.6308998903       16.4216560172       13.3849515962
 Cd        18.1480568067       20.2480398651       13.6473304884
 Cd        20.5912602434       13.4803187482       16.8704366420
 Cd        18.2578543088       17.3571882783       17.1347090002
 Cd        15.6811877867       21.0936979078       17.3613848672
 Cd        18.1675206202       14.3392293844       20.6226962474
 Cd        15.7486409364       18.0042559148       20.6867082804
 Cd        12.5401721773       11.2788176608        8.9823779043
 Cd         9.8793928221       15.5204070597        9.4012341622
 Cd        11.9829158387        8.6088518605       12.1572587201
 Cd         9.5831223747       11.6278652598       12.4498541659
 Cd         7.5879747410       16.2116563327       12.9531929788
 Cd         9.8225933597        9.3937123425       16.7311257047
 Cd         7.5905825129       13.0396352606       16.6894679403
 Cd        15.7409165320       13.3829007777        8.0420899595
 Cd        13.0766168472       17.5693438883        8.3672381120
 Cd        15.7705792250       10.2828848979       11.1321836632
 Cd        10.4963779292       18.6658320741       11.7223184212
 Cd        15.4806567807        7.7728369166       14.5283464690
 Cd         8.4269227131       19.2337628891       15.4884799798
 Cd        13.0447585484        8.7405001263       18.8081900599
 Cd        10.4565681722       12.2405060885       19.3455972035
 Cd         8.4149206931       16.0624871585       19.2396383896
 Cd        19.0724436737       15.4434132686        7.5775858097
 Cd        16.3020393516       19.7768737585        7.8606547776
 Cd        19.3977223392       12.6264805604       10.3309545383
 Cd        14.0588188490       20.9983533287       10.8993745245
 Cd        19.3558926842        9.8332520332       13.6210789811
 Cd        11.7018524512       21.8704418571       14.4350340040
 Cd        18.8715815344        7.5899139099       16.7905580994
 Cd         9.8080926307       22.1179140639       17.9485998402
 Cd        16.2549151663        8.6297845805       21.0827237934
 Cd        14.0385352388       11.8159465437       21.7687813633
 Cd        11.6596135471       15.4342685786       22.0461998832
 Cd         9.8125380501       18.9524205486       21.6949478874
 Cd        22.5868118083       14.9756712596       10.0381323127
 Cd        20.3255543104       19.1278618343       10.3128404296
 Cd        17.4965520380       22.9455436015       10.5437805000
 Cd        22.8341696323       12.4336976787       13.0420335713
 Cd        15.4839644856       23.9646670803       13.7804709714
 Cd        22.4944261608        9.9013509803       16.0524088627
 Cd        13.2448893615       24.4808379420       16.9743326432
 Cd        20.2620458418       10.8916567151       20.0837300255
 Cd        13.5234961175       22.1205694363       21.3184496282
 Cd        17.4439145512       11.7834179925       23.7625330434
 Cd        15.4595279127       15.1494998562       24.2312840347
 Cd        13.1707884927       18.2940338018       24.2571111657
 Cd        24.0323319863       18.7825973104       13.2533531235
 Cd        21.7045093265       22.4053100655       13.4704950310
 Cd        24.2367549385       16.1359863929       16.1699941080
 Cd        22.1825707714       19.9892468933       16.5580870259
 Cd        19.5525354746       23.4935605412       16.5953569092
 Cd        23.9438123975       13.7356339818       19.2871648294
 Cd        22.1269396888       17.2199616701       19.8598197545
 Cd        19.7788082155       20.9137735528       20.1157583241
 Cd        17.3628492703       24.1017963260       19.8268296847
 Cd        21.5492907329       14.7085050738       22.8040457499
 Cd        19.3840979779       18.1353831127       23.2825151909
 Cd        16.8847335839       21.6414880113       23.1755923315
 Cl        14.7097794710       23.5799867112       23.0637611983
 Cl        17.2260643154       24.9477420464       12.0086356930
 Cl        11.1551214655       16.1135865543        7.3077309081
 Cl        17.1712011768       13.5497805308       25.5094439872
 Cl         9.3948040268        9.4461658742       11.1132228369
 Cl        25.5451157895       14.1870222674       17.4094498777
 Cl         7.6644564537       18.2145569340       20.5972459299
 Cl        18.4440968439       25.4353627087       17.9661077243
 Cl        14.7054566347        7.0092553246       19.9785863970
 Cl        18.2519382113       19.9528053339       24.7262309738
 Cl        14.8072532521       25.8220127230       15.5186195972
 Cl        13.5434027476       12.4386612782        6.9686066634
 Cl        11.0912468681        7.4168789141       17.6459858584
 Cl         6.4411156847       14.9627911792       17.8475676417
 Cl        20.6503270459       16.1100025687       24.6409904936
 Cl        24.3094652163       10.9249397032       14.6523506896
 Cl        16.9050358591        6.1828842295       16.2514331381
 Cl        24.3653779105       13.7552019590       11.3113565557
 Cl        20.7969217312       24.5083662166       14.4605898865
 Cl         6.4364543809       17.7051495212       14.6196251134
 Cl        13.2901803013        6.7792925730       13.5894041188
 Cl        14.7569157238       18.4007545863        6.4656321764
 Cl        17.1112458784       14.7487330259        6.2025739720
 Cl        25.5905092530       16.9888582558       14.0459725396
 Cl        14.7415565396       17.1080162303       25.8320611359
 Cl         7.6568500557       20.9479076259       17.3634602456
 Te        14.7973305335       12.4592317488       12.9853444803
 Te        12.0933407811       16.6041468997       13.2329110710
 Te        12.0796828666       13.4182317971       17.0794136462
 Te        18.5850508408       14.9590047614       12.0457623152
 Te        15.8978744835       19.0934363867       12.3290591092
 Te        18.5517858263       11.9240868224       15.6314416536
 Te        16.0008638516       15.9689526233       15.9721997270
 Te        13.3726030570       19.9985970459       16.1084852551
 Te        15.9042082632       12.8843129673       19.6643144350
 Te        13.3375876878       16.7428049450       19.8960319185
 Te        19.9486287221       18.5787456199       15.1142859241
 Te        19.9127742734       15.5536601119       18.7032862108
 Te        17.4296407583       19.4521262805       18.9020385199
 Te        13.5301898384        8.8875211753        9.8674296777
 Te        10.9384059704       13.1195886658       10.4080477872
 Te         8.1359656352       17.3279053507       10.4956318316
 Te        11.0718510982       10.1547118644       14.3452240831
 Te         8.4460230602       13.7805387307       14.1021178646
 Te         8.0630521679       10.8300109411       18.2627527358
 Te        17.3212313325       11.3033494115        8.9576228316
 Te        14.7073713147       15.5647106504        9.5703653268
 Te        11.9045852111       19.7937776248        9.5230385441
 Te        17.2834622274        8.2942292981       12.4831478023
 Te         9.3704210418       20.7007074179       13.3345179365
 Te        14.7322756376        9.5560305969       16.6578956115
 Te         9.8019760402       17.3431034461       17.1077521332
 Te        11.8800696937       10.2646554338       20.8078663760
 Te         9.3219700334       14.1816018555       21.0613169950
 Te        21.1248934418       13.7164489515        8.1063488602
 Te        18.4835023735       18.0644923348        8.5231145483
 Te        15.6247856702       22.2976647226        8.6638467582
 Te        21.1323825275       10.7879520691       11.6181247269
 Te        13.1930267324       23.2166589682       12.4201263406
 Te        21.0202190873        7.8097118263       15.0993818865
 Te        10.6603667962       24.0464010303       16.1774175392
 Te        18.4675599625        8.9053428418       19.3133436050
 Te        11.1263052303       20.9018859362       20.1281086047
 Te        15.5697399224        9.8236634227       23.4417722171
 Te        13.1682433462       13.6848342918       23.7001842999
 Te        10.5733199362       17.4964742541       23.9037518027
 Te        22.4266738330       17.5546130360       11.2424595179
 Te        19.8084650303       21.5835693230       11.5109131723
 Te        22.2541349334       14.5794919386       14.8312964799
 Te        17.2626845120       22.3576657950       15.3224158004
 Te        22.3546035736       11.5525912412       18.3709595893
 Te        14.7696468722       23.3160056671       19.0283374741
 Te        19.8080341299       12.4736710188       22.3324576967
 Te        17.2963394359       16.3590327309       22.4127749034
 Te        14.7347627633       19.9018737012       22.5830973989
 Te        23.9660528170       21.2306783940       14.4605203619
 Te        23.9457439956       18.2448105464       17.9320461177
 Te        21.4270969060       22.1861313314       18.1565393289
 Te        23.8601676132       15.3623348382       21.4790120444
 Te        21.4018112667       19.2187189631       21.7153466307
 Te        18.8702666146       23.0771558533       21.8667196174
     149
 i =       10, E =     -3973.5196440446
 Cd        13.1804666961       14.4435948896       11.7340862633
 Cd        13.3424742141       11.6236027644       15.2839691242
 Cd        10.7423948593       15.2557758738       15.3551616797
 Cd        16.8882591924       16.8984373796       10.8012019749
 Cd        16.9592072764       13.8896663973       14.1995575638
 Cd        14.3715121563       17.8512796860       14.4718512419
 Cd        16.9110774777       10.9819858639       17.7838965056
 Cd        14.3744477117       14.7940356560       18.0810426517
 Cd        12.0486896340       18.7147339336       18.2880381290
 Cd        20.6314016416       16.4235711812       13.3827853336
 Cd        18.1506380569       20.2484498277       13.6442940775
 Cd        20.5916850960       13.4786207824       16.8730510174
 Cd        18.2587590356       17.3580805161       17.1354090799
 Cd        15.6798778065       21.0924037600       17.3650471688
 Cd        18.1695762388       14.3373955217       20.6243118822
 Cd        15.7469485726       18.0067509536       20.6866588682
 Cd        12.5369887400       11.2784652633        8.9807807824
 Cd         9.8773076899       15.5207755569        9.3992404780
 Cd        11.9812179629        8.6059064506       12.1573785427
 Cd         9.5804373306       11.6271776617       12.4489286142
 Cd         7.5859572702       16.2092852811       12.9532319076
 Cd         9.8200040816        9.3921834269       16.7323720435
 Cd         7.5888758776       13.0394536623       16.6872539819
 Cd        15.7410357307       13.3829873705        8.0402955625
 Cd        13.0763428512       17.5692712499        8.3655417365
 Cd        15.7700074735       10.2826227346       11.1304487851
 Cd        10.4954296610       18.6665832326       11.7216301515
 Cd        15.4805403250        7.7696424956       14.5283742500
 Cd         8.4255107373       19.2343716847       15.4889787903
 Cd        13.0437903676        8.7395375293       18.8075054521
 Cd        10.4558621265       12.2416752059       19.3462915730
 Cd         8.4140915199       16.0628351170       19.2409888375
 Cd        19.0724068392       15.4453587692        7.5790243785
 Cd        16.3039699051       19.7758345636        7.8605856619
 Cd        19.3985490001       12.6264009156       10.3302601616
 Cd        14.0590892107       20.9990934244       10.8984362403
 Cd        19.3550886906        9.8327803893       13.6217087284
 Cd        11.7010968517       21.8717257572       14.4348815242
 Cd        18.8712730887        7.5920746024       16.7926220239
 Cd         9.8074200076       22.1194324375       17.9514222884
 Cd        16.2566718866        8.6299259984       21.0804082814
 Cd        14.0381514920       11.8157926394       21.7690684274
 Cd        11.6591347968       15.4350350554       22.0463607894
 Cd         9.8120953543       18.9554439244       21.6960305062
 Cd        22.5866786070       14.9772131130       10.0393484639
 Cd        20.3240607888       19.1265484535       10.3147067755
 Cd        17.4986965976       22.9450924768       10.5440667638
 Cd        22.8363757525       12.4324228648       13.0421048569
 Cd        15.4842565359       23.9654837986       13.7805607531
 Cd        22.4942057966        9.9019327567       16.0547788775
 Cd        13.2435614906       24.4839335820       16.9748044373
 Cd        20.2600134044       10.8933509105       20.0822812791
 Cd        13.5225175274       22.1218965646       21.3191716428
 Cd        17.4461645596       11.7838123960       23.7598704576
 Cd        15.4588497055       15.1493747012       24.2335258919
 Cd        13.1695178221       18.2954261186       24.2592863333
 Cd        24.0304623229       18.7819539500       13.2506492772
 Cd        21.7029123990       22.4035075030       13.4688081673
 Cd        24.2393313760       16.1361152288       16.1695516555
 Cd        22.1824191462       19.9900397315       16.5586369768
 Cd        19.5528996307       23.4958012950       16.5952993827
 Cd        23.9420662128       13.7335400764       19.2862422690
 Cd        22.1277440640       17.2216017673       19.8602164741
 Cd        19.7779233494       20.9147996460       20.1161248885
 Cd        17.3613997144       24.1045761553       19.8282996287
 Cd        21.5474930191       14.7069585635       22.8026019823
 Cd        19.3836077501       18.1356432683       23.2834763368
 Cd        16.8841043359       21.6436208156       23.1789350102
 Cl        14.7121395153       23.5794334593       23.0631014664
 Cl        17.2257974541       24.9486076736       12.0055624703
 Cl        11.1513137557       16.1145409043        7.3057322343
 Cl        17.1708378540       13.5456510468       25.5098973666
 Cl         9.3969561011        9.4458499041       11.1125322407
 Cl        25.5464441973       14.1867817972       17.4122438868
 Cl         7.6635298024       18.2160248812       20.6018261146
 Cl        18.4456009648       25.4381304127       17.9695653823
 Cl        14.7054643522        7.0086928205       19.9815408605
 Cl        18.2549429805       19.9558997469       24.7284509925
 Cl        14.8048696218       25.8246701271       15.5188757071
 Cl        13.5430724980       12.4350408703        6.9668840185
 Cl        11.0869903038        7.4149868635       17.6473752109
 Cl         6.4389576159       14.9598338703       17.8485216509
 Cl        20.6535435664       16.1096375705       24.6405526682
 Cl        24.3102029145       10.9207127973       14.6532304703
 Cl        16.9083623182        6.1807372453       16.2516753184
 Cl        24.3659699044       13.7546705201       11.3080723262
 Cl        20.8004891888       24.5079283194       14.4592224704
 Cl         6.4339697686       17.7049490413       14.6166298040
 Cl        13.2905056418        6.7748620932       13.5865685123
 Cl        14.7575009129       18.4037347923        6.4639895305
 Cl        17.1150709200       14.7482462893        6.2009419252
 Cl        25.5919938834       16.9924359280       14.0441570229
 Cl        14.7378376818       17.1083989457       25.8353670610
 Cl         7.6559797342       20.9520338917       17.3642824772
 Te        14.7971133348       12.4576055557       12.9850061757
 Te        12.0934854734       16.6041347786       13.2325760303
 Te        12.0803253390       13.4169007584       17.0794028188
 Te        18.5852337454       14.9595360147       12.0454376222
 Te        15.8991577345       19.0945157256       12.3276951550
 Te        18.5519819949       11.9232050479       15.6326285698
 Te        16.0013276621       15.9689683303       15.9720300136
 Te        13.3728587725       19.9992358855       16.1085544495
 Te        15.9055984525       12.8835067045       19.6650592145
 Te        13.3377202807       16.7429217750       19.8967866842
 Te        19.9491648121       18.5793650638       15.1139080386
 Te        19.9132631322       15.5535501991       18.7041694646
 Te        17.4300556198       19.4521074236       18.9033072727
 Te        13.5287821867        8.8872903174        9.8666264269
 Te        10.9377106098       13.1202085356       10.4086736534
 Te         8.1337484074       17.3262707433       10.4962736375
 Te        11.0693979712       10.1541283670       14.3445318440
 Te         8.4465562491       13.7791817778       14.1007613877
 Te         8.0608066867       10.8306844979       18.2611054969
 Te        17.3222094778       11.3026150592        8.9560524677
 Te        14.7068068644       15.5640200069        9.5727735409
 Te        11.9042498849       19.7945904568        9.5219583839
 Te        17.2827031608        8.2940300926       12.4824362969
 Te         9.3691354827       20.7019580600       13.3340973460
 Te        14.7320302537        9.5567767099       16.6566141765
 Te         9.8041666805       17.3429941778       17.1078538568
 Te        11.8794486199       10.2641779207       20.8076478463
 Te         9.3204104905       14.1815456571       21.0637540102
 Te        21.1255540691       13.7197923319        8.1067864871
 Te        18.4869146460       18.0668351848        8.5198042656
 Te        15.6284854429       22.2963905887        8.6637941562
 Te        21.1319770754       10.7871555469       11.6186291929
 Te        13.1926161979       23.2176944325       12.4193725271
 Te        21.0199292173        7.8104031175       15.1030413830
 Te        10.6589187682       24.0475276750       16.1799433475
 Te        18.4722686132        8.9008880523       19.3172001295
 Te        11.1274846165       20.9037687741       20.1293471631
 Te        15.5734416711        9.8236432283       23.4393605935
 Te        13.1672969551       13.6848691893       23.7008054790
 Te        10.5721900868       17.5000887763       23.9046182979
 Te        22.4288843835       17.5571872404       11.2373084606
 Te        19.8120783205       21.5851106341       11.5054553156
 Te        22.2531129011       14.5797536905       14.8316415344
 Te        17.2622200410       22.3552838756       15.3235218860
 Te        22.3565025789       11.5484282581       18.3745105159
 Te        14.7692117094       23.3152879301       19.0278143360
 Te        19.8127311545       12.4684643806       22.3352140522
 Te        17.2947897075       16.3592953261       22.4116368905
 Te        14.7344544846       19.9030166086       22.5831613678
 Te        23.9641971496       21.2292864253       14.4573946716
 Te        23.9466357828       18.2458576269       17.9319674065
 Te        21.4276838407       22.1873363067       18.1575691870
 Te        23.8577754642       15.3591003793       21.4781685360
 Te        21.4015268519       19.2201303453       21.7160865589
 Te        18.8698413447       23.0786431979       21.8675528984
     149
 i =       11, E =     -3973.5196873314
 Cd        13.1793024312       14.4418237389       11.7370950792
 Cd        13.3411927699       11.6241187175       15.2821917688
 Cd        10.7443885524       15.2536622033       15.3542046878
 Cd        16.8902008132       16.8996998862       10.7997774758
 Cd        16.9585562509       13.8898637777       14.2002823981
 Cd        14.3727678157       17.8514499924       14.4716543640
 Cd        16.9128114484       10.9800906512       17.7857267191
 Cd        14.3755177800       14.7941727086       18.0807697594
 Cd        12.0512373950       18.7162343045       18.2893058721
 Cd        20.6316194355       16.4253591393       13.3807956336
 Cd        18.1530191548       20.2488259867       13.6416128422
 Cd        20.5917996195       13.4768920507       16.8758220452
 Cd        18.2581176249       17.3578536610       17.1350832927
 Cd        15.6789020044       21.0903343330       17.3677243746
 Cd        18.1716800830       14.3351398357       20.6255878861
 Cd        15.7459982785       18.0080783998       20.6852529484
 Cd        12.5350084715       11.2770991137        8.9794756980
 Cd         9.8753137453       15.5216119007        9.3975020543
 Cd        11.9806648062        8.6033979090       12.1568515821
 Cd         9.5782791211       11.6254540385       12.4476943891
 Cd         7.5839167644       16.2078990018       12.9528109241
 Cd         9.8178783084        9.3909964205       16.7333243901
 Cd         7.5869983095       13.0390793737       16.6859950187
 Cd        15.7411475736       13.3826044718        8.0388762343
 Cd        13.0759715709       17.5691348414        8.3641905369
 Cd        15.7691481747       10.2824992268       11.1288841209
 Cd        10.4941976712       18.6666928438       11.7209895434
 Cd        15.4804299228        7.7671390659       14.5276363289
 Cd         8.4244341387       19.2348938999       15.4893517143
 Cd        13.0428561687        8.7384368620       18.8071010175
 Cd        10.4547209988       12.2423105290       19.3462239692
 Cd         8.4132214203       16.0633600293       19.2420639545
 Cd        19.0727440514       15.4456953401        7.5796412366
 Cd        16.3047132305       19.7756679910        7.8601720659
 Cd        19.3992324697       12.6266345492       10.3294417290
 Cd        14.0596483831       20.9997330670       10.8973493626
 Cd        19.3545065751        9.8319760791       13.6226607133
 Cd        11.7003694272       21.8732226406       14.4354272226
 Cd        18.8708838320        7.5930322712       16.7937385492
 Cd         9.8065329695       22.1212187909       17.9530791589
 Cd        16.2572259041        8.6298185203       21.0791439332
 Cd        14.0382576230       11.8153250255       21.7695346976
 Cd        11.6584587992       15.4365681293       22.0470307928
 Cd         9.8113534723       18.9574452344       21.6973951145
 Cd        22.5867704855       14.9773901698       10.0398267416
 Cd        20.3232678074       19.1259129039       10.3154438034
 Cd        17.4996034990       22.9452852070       10.5439610349
 Cd        22.8379366829       12.4310367687       13.0420019298
 Cd        15.4843838164       23.9660425947       13.7807596240
 Cd        22.4940273918        9.9015711338       16.0558316808
 Cd        13.2421152179       24.4868927853       16.9748816762
 Cd        20.2585956465       10.8942225262       20.0815558706
 Cd        13.5222870305       22.1235064729       21.3206228755
 Cd        17.4472256000       11.7837300016       23.7584551135
 Cd        15.4582132894       15.1492088200       24.2357368705
 Cd        13.1686334534       18.2964258086       24.2609377933
 Cd        24.0296267050       18.7818083234       13.2490478225
 Cd        21.7023908075       22.4026211312       13.4681875736
 Cd        24.2415315576       16.1366390309       16.1694492726
 Cd        22.1824441332       19.9911045386       16.5586268712
 Cd        19.5533653223       23.4977552093       16.5957284769
 Cd        23.9412093743       13.7329290294       19.2857841786
 Cd        22.1285422315       17.2225009474       19.8609599353
 Cd        19.7769548456       20.9159867251       20.1166269565
 Cd        17.3611034392       24.1067479377       19.8301029561
 Cd        21.5462577816       14.7066405914       22.8016687932
 Cd        19.3832946329       18.1364798091       23.2841133448
 Cd        16.8844494964       21.6454285665       23.1809804630
 Cl        14.7137839536       23.5803505377       23.0632991198
 Cl        17.2253438631       24.9488121836       12.0033167520
 Cl        11.1485098557       16.1156619258        7.3043803892
 Cl        17.1701369615       13.5426487708       25.5097901356
 Cl         9.3975275545        9.4450659269       11.1108785299
 Cl        25.5471864544       14.1867448295       17.4144481593
 Cl         7.6632606876       18.2169857631       20.6052717038
 Cl        18.4468798426       25.4399648875       17.9722228416
 Cl        14.7051044074        7.0088589956       19.9835412934
 Cl        18.2573043324       19.9582449874       24.7295928352
 Cl        14.8030816306       25.8264335552       15.5186597011
 Cl        13.5430667148       12.4321889663        6.9658796509
 Cl        11.0838673338        7.4141199723       17.6487609545
 Cl         6.4379968949       14.9575662003       17.8493794583
 Cl        20.6562143793       16.1090200489       24.6398893816
 Cl        24.3102188407       10.9175071215       14.6538260197
 Cl        16.9114103743        6.1792368871       16.2519727252
 Cl        24.3660327649       13.7540904072       11.3057375329
 Cl        20.8030951759       24.5072723597       14.4582606719
 Cl         6.4326745118       17.7049212139       14.6143589777
 Cl        13.2910302029        6.7717236423       13.5843517523
 Cl        14.7579522116       18.4061214795        6.4630864472
 Cl        17.1180399591       14.7478086488        6.1999831372
 Cl        25.5927495284       16.9951931302       14.0429570945
 Cl        14.7347683549       17.1083054354       25.8375699535
 Cl         7.6557068529       20.9550554690       17.3647103369
 Te        14.7979868008       12.4568734917       12.9848495271
 Te        12.0943689238       16.6046430273       13.2330511849
 Te        12.0814468640       13.4166294125       17.0800261893
 Te        18.5847476969       14.9597545375       12.0460478480
 Te        15.9000146324       19.0948386182       12.3272661682
 Te        18.5514249871       11.9233354013       15.6334811938
 Te        16.0012701201       15.9691624709       15.9720548170
 Te        13.3732664869       19.9988508653       16.1080905125
 Te        15.9064065876       12.8835281843       19.6649550854
 Te        13.3377727643       16.7422629810       19.8965750494
 Te        19.9489317863       18.5793971029       15.1141058820
 Te        19.9128490231       15.5539317809       18.7044636547
 Te        17.4309508928       19.4514069296       18.9035559701
 Te        13.5281544660        8.8867477916        9.8659780782
 Te        10.9377139516       13.1213228316       10.4088706735
 Te         8.1316787735       17.3261616942       10.4964992341
 Te        11.0675566215       10.1523759023       14.3448773134
 Te         8.4478665594       13.7793717354       14.1009513162
 Te         8.0589645260       10.8314970705       18.2611464753
 Te        17.3227694574       11.3024232304        8.9556471786
 Te        14.7065449974       15.5637264955        9.5743103180
 Te        11.9040916073       19.7949571852        9.5218671104
 Te        17.2821562152        8.2948964768       12.4817286227
 Te         9.3690092549       20.7026044173       13.3339519075
 Te        14.7318103000        9.5571483943       16.6559713624
 Te         9.8057248341       17.3427805765       17.1081694077
 Te        11.8788157405       10.2650705436       20.8070032566
 Te         9.3202188462       14.1815071182       21.0652887842
 Te        21.1262187441       13.7214279853        8.1067843722
 Te        18.4884617242       18.0679567204        8.5177518977
 Te        15.6304717689       22.2961421653        8.6633139632
 Te        21.1310725462       10.7868160682       11.6194121729
 Te        13.1923115628       23.2176301129       12.4191559213
 Te        21.0198667212        7.8106451003       15.1050145800
 Te        10.6572154354       24.0489148756       16.1809765864
 Te        18.4747434523        8.8979785377       19.3193734186
 Te        11.1281814934       20.9035239166       20.1291360254
 Te        15.5755573503        9.8234436733       23.4378045574
 Te        13.1661205769       13.6851846138       23.7002697093
 Te        10.5708920206       17.5017820532       23.9056521111
 Te        22.4303501782       17.5581590042       11.2346268549
 Te        19.8141087569       21.5864250968       11.5024605863
 Te        22.2523877521       14.5800008722       14.8320081839
 Te        17.2620578862       22.3536139905       15.3241139229
 Te        22.3576049603       11.5463978321       18.3760539579
 Te        14.7692785207       23.3147165602       19.0266346218
 Te        19.8155486569       12.4656838156       22.3371866996
 Te        17.2935312366       16.3591639613       22.4110821071
 Te        14.7345209217       19.9033917419       22.5844838081
 Te        23.9633835988       21.2285664683       14.4557413120
 Te        23.9465387703       18.2467749238       17.9318529011
 Te        21.4273791798       22.1874465337       18.1583101140
 Te        23.8566838933       15.3575394451       21.4773651116
 Te        21.4008479441       19.2212634014       21.7157119957
 Te        18.8701340083       23.0797249062       21.8683261979
     149
 i =       12, E =     -3973.5197137776
 Cd        13.1792239499       14.4413681499       11.7397546122
 Cd        13.3405614197       11.6247364501       15.2813867197
 Cd        10.7465596687       15.2526599320       15.3540948017
 Cd        16.8914950239       16.9005043318       10.7985016747
 Cd        16.9579216914       13.8911301064       14.2018083283
 Cd        14.3744830450       17.8509919807       14.4719460291
 Cd        16.9142086254       10.9782736284       17.7873331187
 Cd        14.3773102199       14.7945548084       18.0797883925
 Cd        12.0530261398       18.7166660360       18.2895612674
 Cd        20.6319410756       16.4264480309       13.3795061114
 Cd        18.1548356046       20.2494331592       13.6396667584
 Cd        20.5920322256       13.4757589015       16.8780053008
 Cd        18.2568565480       17.3567705407       17.1340558427
 Cd        15.6784369967       21.0881560281       17.3688412213
 Cd        18.1733031017       14.3331594804       20.6268705184
 Cd        15.7453126114       18.0083546707       20.6838519696
 Cd        12.5333585561       11.2760474961        8.9787690884
 Cd         9.8735047362       15.5224122431        9.3963127150
 Cd        11.9806199610        8.6015684197       12.1566095838
 Cd         9.5771319961       11.6233784894       12.4464618887
 Cd         7.5820720066       16.2069603379       12.9521091829
 Cd         9.8157705956        9.3904195972       16.7342918071
 Cd         7.5851740097       13.0385981062       16.6851556007
 Cd        15.7408533460       13.3825937123        8.0379883331
 Cd        13.0757104655       17.5687808467        8.3634120732
 Cd        15.7682087339       10.2824686691       11.1273748661
 Cd        10.4928645083       18.6664359380       11.7204776143
 Cd        15.4802122039        7.7656213230       14.5270731269
 Cd         8.4240566685       19.2349187691       15.4899775242
 Cd        13.0418907443        8.7378260473       18.8068707733
 Cd        10.4532864630       12.2428478543       19.3457629783
 Cd         8.4127584425       16.0639949546       19.2428142308
 Cd        19.0732323007       15.4454948595        7.5797880372
 Cd        16.3048890263       19.7760938498        7.8596503752
 Cd        19.3998604044       12.6271655838       10.3288129439
 Cd        14.0603280059       21.0001362780       10.8962950326
 Cd        19.3542696033        9.8312779105       13.6239414181
 Cd        11.6996802086       21.8747425198       14.4363882931
 Cd        18.8709305341        7.5932071888       16.7940705473
 Cd         9.8057738747       22.1230574401       17.9541401819
 Cd        16.2572319381        8.6295887787       21.0783895119
 Cd        14.0385147748       11.8149205059       21.7699345565
 Cd        11.6576081732       15.4384330456       22.0478822579
 Cd         9.8106522082       18.9588508092       21.6988759498
 Cd        22.5870048453       14.9769253669       10.0399104661
 Cd        20.3230958203       19.1257765682       10.3153926046
 Cd        17.4997745179       22.9456740207       10.5434977928
 Cd        22.8388424168       12.4303417442       13.0423840513
 Cd        15.4845373606       23.9660012785       13.7812588572
 Cd        22.4939583056        9.9009424186       16.0563890295
 Cd        13.2407236370       24.4894495603       16.9750444881
 Cd        20.2579799554       10.8946186397       20.0812505870
 Cd        13.5228535170       22.1248210916       21.3220466099
 Cd        17.4477346408       11.7833743953       23.7577005343
 Cd        15.4574227102       15.1490263718       24.2373839145
 Cd        13.1677036105       18.2971208978       24.2620525320
 Cd        24.0293597633       18.7820776178       13.2481063323
 Cd        21.7025182456       22.4022301451       13.4680419791
 Cd        24.2428497215       16.1370429205       16.1692176942
 Cd        22.1825553363       19.9920976133       16.5581462993
 Cd        19.5532165290       23.4993159088       16.5960834381
 Cd        23.9407657323       13.7329517045       19.2854062708
 Cd        22.1292478589       17.2227624434       19.8615932352
 Cd        19.7760213953       20.9172388013       20.1171756720
 Cd        17.3607742537       24.1082472150       19.8316054498
 Cd        21.5459512747       14.7071782348       22.8007385580
 Cd        19.3826543408       18.1371096029       23.2842701085
 Cd        16.8850090749       21.6465324664       23.1820121679
 Cl        14.7150188207       23.5822152444       23.0640482642
 Cl        17.2245732275       24.9487241324       12.0020032230
 Cl        11.1465639711       16.1170934596        7.3035616232
 Cl        17.1690697192       13.5407166004       25.5094697639
 Cl         9.3971591389        9.4439126348       11.1085867998
 Cl        25.5476096980       14.1871343524       17.4158401720
 Cl         7.6632499672       18.2172899327       20.6076862035
 Cl        18.4481254594       25.4409688385       17.9742541783
 Cl        14.7042040937        7.0093464211       19.9846748910
 Cl        18.2592484638       19.9600943630       24.7298477850
 Cl        14.8017401748       25.8274563440       15.5179339456
 Cl        13.5435088987       12.4298814101        6.9655217138
 Cl        11.0816078386        7.4139650097       17.6502994639
 Cl         6.4378815324       14.9561322675       17.8504611791
 Cl        20.6581608620       16.1087357344       24.6391560888
 Cl        24.3098617476       10.9152436858       14.6539163742
 Cl        16.9137024883        6.1782016686       16.2519368438
 Cl        24.3658020110       13.7531457612       11.3043971103
 Cl        20.8047404078       24.5066744541       14.4580085067
 Cl         6.4323300312       17.7053158149       14.6128106565
 Cl        13.2917883295        6.7695902559       13.5825033560
 Cl        14.7579521430       18.4078432013        6.4627182836
 Cl        17.1200067066       14.7471375534        6.1995633302
 Cl        25.5931093711       16.9970635128       14.0424929909
 Cl        14.7322003233       17.1076627739       25.8389854759
 Cl         7.6557866128       20.9570399616       17.3645792882
 Te        14.7993160854       12.4566014553       12.9849160838
 Te        12.0955429704       16.6054142149       13.2338267115
 Te        12.0828871124       13.4167547120       17.0806898449
 Te        18.5840432028       14.9598314072       12.0469546097
 Te        15.9007955326       19.0947201220       12.3272413503
 Te        18.5506063335       11.9239223503       15.6342516384
 Te        16.0009784887       15.9694302791       15.9721182635
 Te        13.3737659857       19.9981382056       16.1073823142
 Te        15.9072126174       12.8836746759       19.6645222954
 Te        13.3380423200       16.7413984024       19.8958542246
 Te        19.9483702493       18.5791371876       15.1143699443
 Te        19.9120973546       15.5543945297       18.7046070780
 Te        17.4320486038       19.4504507974       18.9032072101
 Te        13.5279703857        8.8858166727        9.8655718166
 Te        10.9380138334       13.1221855201       10.4086742991
 Te         8.1300579122       17.3267873637       10.4965163905
 Te        11.0663711684       10.1500717969       14.3449194781
 Te         8.4496658633       13.7800768926       14.1016971248
 Te         8.0578210383       10.8321466580       18.2618598219
 Te        17.3229025781       11.3027524935        8.9558476557
 Te        14.7064150526       15.5634298530        9.5748534389
 Te        11.9043373203       19.7944921344        9.5222737497
 Te        17.2815588636        8.2960704407       12.4812365557
 Te         9.3695132760       20.7024675458       13.3344826740
 Te        14.7317821993        9.5568471628       16.6555583583
 Te         9.8065341235       17.3426237438       17.1084602081
 Te        11.8787255258       10.2663604740       20.8056697829
 Te         9.3207569059       14.1820267968       21.0654840747
 Te        21.1269413017       13.7215089698        8.1065067682
 Te        18.4889456293       18.0681123704        8.5165504239
 Te        15.6312370671       22.2965977608        8.6626547768
 Te        21.1299257353       10.7869358119       11.6203859792
 Te        13.1925728652       23.2169652978       12.4195903625
 Te        21.0194004886        7.8102691876       15.1057210199
 Te        10.6557840521       24.0503424941       16.1811637695
 Te        18.4756641356        8.8961722916       19.3206531789
 Te        11.1288166879       20.9024684026       20.1283282180
 Te        15.5762645134        9.8231510815       23.4370793459
 Te        13.1655982375       13.6858722881       23.6991021789
 Te        10.5700791234       17.5024482384       23.9067194975
 Te        22.4309238896       17.5581625080       11.2335171893
 Te        19.8151836454       21.5874117091       11.5010389779
 Te        22.2521217280       14.5800564563       14.8324256087
 Te        17.2623068335       22.3528399556       15.3245203386
 Te        22.3579606475       11.5456862367       18.3764369391
 Te        14.7697128760       23.3146241478       19.0256007088
 Te        19.8169230977       12.4642631096       22.3385397084
 Te        17.2927889810       16.3588426447       22.4111353764
 Te        14.7351711204       19.9037488523       22.5861242630
 Te        23.9633349318       21.2282799963       14.4552476491
 Te        23.9458017859       18.2473949062       17.9315972257
 Te        21.4263284400       22.1871939419       18.1586900974
 Te        23.8561283288       15.3573980554       21.4770879450
 Te        21.3997328747       19.2220091153       21.7150202107
 Te        18.8707708396       23.0804518761       21.8692107563
     149
 i =       13, E =     -3973.5197343433
 Cd        13.1797089609       14.4415324257       11.7415422535
 Cd        13.3398661029       11.6241604335       15.2808544515
 Cd        10.7486232121       15.2526594477       15.3547681599
 Cd        16.8923039946       16.9009220713       10.7965751538
 Cd        16.9578040303       13.8923074603       14.2032934233
 Cd        14.3763512386       17.8508086358       14.4718234433
 Cd        16.9153023751       10.9754581067       17.7889088023
 Cd        14.3794327076       14.7945082193       18.0790226314
 Cd        12.0538804808       18.7164719017       18.2891485390
 Cd        20.6330011699       16.4268143124       13.3785306412
 Cd        18.1566286719       20.2509025591       13.6379726862
 Cd        20.5928824895       13.4749834395       16.8796288544
 Cd        18.2560930838       17.3553082667       17.1328333968
 Cd        15.6785610900       21.0866274690       17.3689768438
 Cd        18.1749908708       14.3312398229       20.6290529522
 Cd        15.7449348061       18.0082767616       20.6834983642
 Cd        12.5317581331       11.2750255309        8.9784867611
 Cd         9.8717564810       15.5229526518        9.3953529668
 Cd        11.9809898802        8.5996362710       12.1565334975
 Cd         9.5766633246       11.6208581100       12.4447359296
 Cd         7.5801358507       16.2059211553       12.9513755009
 Cd         9.8136409859        9.3900121730       16.7350556856
 Cd         7.5831549291       13.0380446864       16.6843317897
 Cd        15.7403084096       13.3827808709        8.0372170823
 Cd        13.0756376670       17.5679635155        8.3627520843
 Cd        15.7673760299       10.2820554772       11.1253802236
 Cd        10.4911592865       18.6663302995       11.7197499715
 Cd        15.4800187800        7.7642996596       14.5266976372
 Cd         8.4239450053       19.2345679688       15.4910088214
 Cd        13.0409393489        8.7373350642       18.8061592172
 Cd        10.4514188376       12.2432549135       19.3454946085
 Cd         8.4124084752       16.0650750816       19.2432741752
 Cd        19.0740363691       15.4447782017        7.5796789892
 Cd        16.3048277666       19.7767529571        7.8589443083
 Cd        19.4005555695       12.6276793063       10.3282178347
 Cd        14.0608550503       21.0006205514       10.8950781668
 Cd        19.3540905088        9.8305656384       13.6252728142
 Cd        11.6987136607       21.8767320708       14.4373282450
 Cd        18.8709694615        7.5929300633       16.7943035993
 Cd         9.8050352397       22.1251059548       17.9552134727
 Cd        16.2566455999        8.6292963134       21.0780280268
 Cd        14.0386408523       11.8144934955       21.7703546930
 Cd        11.6563867110       15.4403201052       22.0492492760
 Cd         9.8099456076       18.9602674150       21.7005920946
 Cd        22.5874094667       14.9759592969       10.0397725484
 Cd        20.3231133352       19.1258601783       10.3148166206
 Cd        17.4997176102       22.9463008716       10.5428847241
 Cd        22.8393009026       12.4299783195       13.0431592329
 Cd        15.4849990701       23.9656288710       13.7822099486
 Cd        22.4938244169        9.8997838820       16.0565306173
 Cd        13.2395033175       24.4920531780       16.9755349856
 Cd        20.2575540239       10.8947256440       20.0811587565
 Cd        13.5243047717       22.1262152897       21.3234189002
 Cd        17.4477136754       11.7827231659       23.7571759080
 Cd        15.4567237870       15.1490708972       24.2388921938
 Cd        13.1669383036       18.2979978499       24.2630456656
 Cd        24.0293360214       18.7824784324       13.2472743285
 Cd        21.7029866057       22.4020757374       13.4681592048
 Cd        24.2436717811       16.1374227603       16.1687356623
 Cd        22.1827970862       19.9932650601       16.5576128227
 Cd        19.5526321136       23.5010204431       16.5963740620
 Cd        23.9405643072       13.7335543600       19.2851503157
 Cd        22.1300808411       17.2231000780       19.8621637467
 Cd        19.7753763821       20.9188736432       20.1179951990
 Cd        17.3603573184       24.1094561942       19.8331180040
 Cd        21.5457179187       14.7080611767       22.7998006703
 Cd        19.3816700851       18.1374432798       23.2842594805
 Cd        16.8857960882       21.6473983965       23.1828812330
 Cl        14.7163312097       23.5847751272       23.0651301539
 Cl        17.2233802506       24.9487822676       12.0012966060
 Cl        11.1447477780       16.1190986520        7.3027990278
 Cl        17.1675098458       13.5393288350       25.5093328521
 Cl         9.3963668744        9.4423663442       11.1055700071
 Cl        25.5481654112       14.1879851973       17.4167247492
 Cl         7.6630116189       18.2170897939       20.6098328516
 Cl        18.4497209968       25.4418863121       17.9763025880
 Cl        14.7025064433        7.0097431099       19.9853637939
 Cl        18.2614673031       19.9620764744       24.7299998369
 Cl        14.8004205869       25.8283506363       15.5166935621
 Cl        13.5443444405       12.4273944240        6.9652404777
 Cl        11.0793020112        7.4139495697       17.6523314633
 Cl         6.4379918267       14.9552367920       17.8521541037
 Cl        20.6596578632       16.1091353933       24.6385246116
 Cl        24.3095793753       10.9131324356       14.6535746013
 Cl        16.9153160438        6.1770676483       16.2514036147
 Cl        24.3657043681       13.7515084218       11.3036574742
 Cl        20.8059542559       24.5063670057       14.4584008644
 Cl         6.4322594936       17.7062939504       14.6116396037
 Cl        13.2928305723        6.7672313342       13.5805029570
 Cl        14.7573429415       18.4092540007        6.4624260439
 Cl        17.1214180728       14.7460075530        6.1991683360
 Cl        25.5936081643       16.9984601272       14.0425212802
 Cl        14.7294668362       17.1064523225       25.8404653325
 Cl         7.6557710194       20.9586273632       17.3639722307
 Te        14.8005315533       12.4563091539       12.9851043730
 Te        12.0964918805       16.6065227995       13.2345224912
 Te        12.0843289353       13.4167313962       17.0814132225
 Te        18.5835690717       14.9600398347       12.0475944445
 Te        15.9018745997       19.0947451578       12.3269107482
 Te        18.5500495337       11.9244228998       15.6354772478
 Te        16.0005995449       15.9697621884       15.9721320392
 Te        13.3740292020       19.9977299148       16.1064893134
 Te        15.9083055195       12.8833902446       19.6643827907
 Te        13.3381794632       16.7405127958       19.8952041438
 Te        19.9480086011       18.5789199457       15.1142665497
 Te        19.9116156658       15.5545989577       18.7051997562
 Te        17.4330899012       19.4494220801       18.9029095165
 Te        13.5273240167        8.8849503904        9.8650709555
 Te        10.9378304420       13.1230000222       10.4082670825
 Te         8.1285019705       17.3276322503       10.4962969810
 Te        11.0650641312       10.1471894022       14.3450477830
 Te         8.4516176128       13.7806258905       14.1022665942
 Te         8.0566421025       10.8328843773       18.2628722047
 Te        17.3228277832       11.3036785354        8.9557304270
 Te        14.7061256135       15.5631708925        9.5745665452
 Te        11.9047622816       19.7934983891        9.5226555840
 Te        17.2808375054        8.2970059543       12.4810365614
 Te         9.3699309094       20.7018939863       13.3356503312
 Te        14.7316729613        9.5556752300       16.6553791469
 Te         9.8065855155       17.3425098736       17.1089710284
 Te        11.8787215820       10.2678084848       20.8040820341
 Te         9.3211800019       14.1831377461       21.0651593539
 Te        21.1277379396       13.7207209880        8.1059325671
 Te        18.4891378355       18.0681691864        8.5152594576
 Te        15.6312812963       22.2975121412        8.6616047454
 Te        21.1291266945       10.7874692402       11.6217783708
 Te        13.1932768576       23.2162438625       12.4203858175
 Te        21.0192281599        7.8096488923       15.1055719310
 Te        10.6544736171       24.0521444240       16.1811776050
 Te        18.4765144498        8.8942530847       19.3217064089
 Te        11.1295413998       20.9016588551       20.1276542738
 Te        15.5761090140        9.8227554933       23.4366954172
 Te        13.1651080155       13.6866806394       23.6978153417
 Te        10.5692979472       17.5029753818       23.9079775643
 Te        22.4314173652       17.5578411593       11.2327444613
 Te        19.8161476826       21.5885941661       11.4997414299
 Te        22.2524778930       14.5799619855       14.8329462452
 Te        17.2628071515       22.3528765704       15.3247937700
 Te        22.3583848688       11.5452035783       18.3765798741
 Te        14.7698845650       23.3151914325       19.0247903001
 Te        19.8184167181       12.4631311090       22.3400558197
 Te        17.2922170410       16.3582806997       22.4120653300
 Te        14.7359922847       19.9041845148       22.5881506483
 Te        23.9638585172       21.2283596548       14.4553982553
 Te        23.9451473808       18.2477404739       17.9310287030
 Te        21.4248704742       22.1873543643       18.1586759595
 Te        23.8564417741       15.3579636648       21.4766154860
 Te        21.3984555288       19.2225162030       21.7146269179
 Te        18.8711949838       23.0815503413       21.8701214827
     149
 i =       14, E =     -3973.5197505536
 Cd        13.1809229014       14.4422859090       11.7427772110
 Cd        13.3394889395       11.6230368431       15.2805292282
 Cd        10.7509626441       15.2535552959       15.3560219870
 Cd        16.8924425519       16.9007103220       10.7953844129
 Cd        16.9580308100       13.8930975094       14.2045175953
 Cd        14.3780526480       17.8510472970       14.4713366000
 Cd        16.9155719685       10.9732368908       17.7896382601
 Cd        14.3815716400       14.7940393786       18.0786972339
 Cd        12.0543840689       18.7154516957       18.2879472635
 Cd        20.6335391479       16.4263776971       13.3785805563
 Cd        18.1576741689       20.2520141585       13.6373050130
 Cd        20.5931241790       13.4751692503       16.8804138431
 Cd        18.2558946194       17.3538097982       17.1317995911
 Cd        15.6792154674       21.0853691465       17.3682519595
 Cd        18.1758437951       14.3301860413       20.6308422825
 Cd        15.7449506415       18.0078935872       20.6836162866
 Cd        12.5301905067       11.2744869118        8.9789132482
 Cd         9.8702740479       15.5231050039        9.3950041023
 Cd        11.9813765844        8.5981061160       12.1566333813
 Cd         9.5772168975       11.6186029865       12.4431114868
 Cd         7.5787656833       16.2046730244       12.9507669054
 Cd         9.8117234036        9.3900728606       16.7354088111
 Cd         7.5815672058       13.0377395358       16.6831859822
 Cd        15.7395826203       13.3832698655        8.0370805287
 Cd        13.0758302739       17.5669481706        8.3626567184
 Cd        15.7666825378       10.2820753753       11.1240105155
 Cd        10.4899447595       18.6658950562       11.7195398549
 Cd        15.4799449911        7.7639961455       14.5267225704
 Cd         8.4244584815       19.2338139850       15.4922350750
 Cd        13.0402568459        8.7375835164       18.8050948045
 Cd        10.4502132437       12.2439996095       19.3446327135
 Cd         8.4124494175       16.0664486517       19.2432412228
 Cd        19.0749957204       15.4441649955        7.5794477279
 Cd        16.3048652975       19.7775693720        7.8583468420
 Cd        19.4007064499       12.6285114319       10.3283751448
 Cd        14.0615800477       21.0004923987       10.8944137399
 Cd        19.3534650865        9.8306477446       13.6267392005
 Cd        11.6981697157       21.8781822837       14.4385404664
 Cd        18.8713808495        7.5923483136       16.7944434344
 Cd         9.8048604895       22.1268135229       17.9562907561
 Cd        16.2559665160        8.6289777554       21.0777754161
 Cd        14.0391495984       11.8146270507       21.7700120651
 Cd        11.6557014412       15.4422541427       22.0499024711
 Cd         9.8097131300       18.9617363238       21.7018225730
 Cd        22.5877624468       14.9749419059       10.0394629114
 Cd        20.3234163537       19.1262257859       10.3137884765
 Cd        17.4994900600       22.9467038124       10.5421185182
 Cd        22.8389234966       12.4302790735       13.0444429774
 Cd        15.4855957757       23.9646253752       13.7834399228
 Cd        22.4936089514        9.8987407589       16.0568225652
 Cd        13.2385750990       24.4941481872       16.9763893823
 Cd        20.2576011691       10.8945439955       20.0813299864
 Cd        13.5263143884       22.1271383165       21.3242405870
 Cd        17.4476411478       11.7819709409       23.7568127282
 Cd        15.4561801754       15.1493122237       24.2394522300
 Cd        13.1664549485       18.2989634295       24.2635352905
 Cd        24.0293448825       18.7830992080       13.2465803789
 Cd        21.7036240086       22.4020687584       13.4682284841
 Cd        24.2434735797       16.1377005719       16.1681931720
 Cd        22.1823362270       19.9940322400       16.5569328971
 Cd        19.5515793896       23.5022322091       16.5965648949
 Cd        23.9403057330       13.7341165529       19.2848789822
 Cd        22.1300502332       17.2232572703       19.8622375723
 Cd        19.7744616531       20.9199443602       20.1184990768
 Cd        17.3595520550       24.1100548060       19.8342798925
 Cd        21.5459766881       14.7090201089       22.7987323844
 Cd        19.3803863786       18.1372264504       23.2836517313
 Cd        16.8864744117       21.6480340760       23.1832557121
 Cl        14.7174525632       23.5870562489       23.0659747525
 Cl        17.2219884836       24.9486651376       12.0011414418
 Cl        11.1431677852       16.1212207625        7.3024980027
 Cl        17.1657521619       13.5384120089       25.5092064982
 Cl         9.3955852146        9.4410681903       11.1027277843
 Cl        25.5485589658       14.1891793293       17.4170637760
 Cl         7.6627756207       18.2166020949       20.6114988161
 Cl        18.4511974755       25.4424394498       17.9782202272
 Cl        14.7005236036        7.0101594314       19.9856497005
 Cl        18.2634711141       19.9637889352       24.7296622758
 Cl        14.7991620122       25.8287941650       15.5153100748
 Cl        13.5452609156       12.4250091560        6.9654027762
 Cl        11.0771880833        7.4143693580       17.6544086293
 Cl         6.4383239405       14.9548329970       17.8539748911
 Cl        20.6605641448       16.1100012102       24.6378157514
 Cl        24.3091220417       10.9115037304       14.6529659098
 Cl        16.9162337951        6.1762351901       16.2504226507
 Cl        24.3654684206       13.7496009911       11.3035392675
 Cl        20.8066025081       24.5061854531       14.4592333883
 Cl         6.4326596664       17.7074449195       14.6108143818
 Cl        13.2940562268        6.7654673505       13.5786724533
 Cl        14.7564141564       18.4102781863        6.4624428272
 Cl        17.1222687567       14.7447279311        6.1990976242
 Cl        25.5939248490       16.9993576170       14.0429535039
 Cl        14.7268881348       17.1049985983       25.8416028562
 Cl         7.6560026386       20.9597064685       17.3630631176
 Te        14.8012497723       12.4563300118       12.9856752302
 Te        12.0972997134       16.6074878186       13.2350908824
 Te        12.0857548747       13.4165309721       17.0818147476
 Te        18.5832654717       14.9603976004       12.0480991471
 Te        15.9031543415       19.0947626086       12.3264432007
 Te        18.5496875380       11.9249465257       15.6368244096
 Te        16.0002992063       15.9700619870       15.9720561324
 Te        13.3743006836       19.9974880172       16.1056964477
 Te        15.9095221147       12.8827631098       19.6643788744
 Te        13.3385021291       16.7398577281       19.8946065791
 Te        19.9477311355       18.5786782205       15.1138168896
 Te        19.9111726456       15.5544916586       18.7059467152
 Te        17.4335327656       19.4483510259       18.9025031242
 Te        13.5265317079        8.8842702466        9.8647034264
 Te        10.9379691535       13.1237229356       10.4083556140
 Te         8.1273298080       17.3282189454       10.4960430605
 Te        11.0642110062       10.1449352626       14.3447783377
 Te         8.4541465857       13.7807819917       14.1025986996
 Te         8.0556222828       10.8334584902       18.2637862489
 Te        17.3226891300       11.3051247946        8.9559143391
 Te        14.7059428668       15.5629087644        9.5741750190
 Te        11.9054496792       19.7921103043        9.5232477217
 Te        17.2801241369        8.2981688487       12.4813145789
 Te         9.3705826300       20.7009708496       13.3371718723
 Te        14.7316454342        9.5545444821       16.6551845843
 Te         9.8064460474       17.3423352153       17.1094342665
 Te        11.8789848752       10.2692429815       20.8023552439
 Te         9.3215970282       14.1845158364       21.0644597064
 Te        21.1284853294       13.7194712010        8.1054173734
 Te        18.4889866833       18.0678767635        8.5145679641
 Te        15.6309221992       22.2984944860        8.6606507756
 Te        21.1281906312       10.7884426939       11.6233647568
 Te        13.1943841136       23.2151921135       12.4213953760
 Te        21.0188449803        7.8087411993       15.1050236883
 Te        10.6536956010       24.0538703159       16.1813778292
 Te        18.4768280918        8.8931183268       19.3224125490
 Te        11.1309043502       20.9009114947       20.1270954275
 Te        15.5752464037        9.8223816441       23.4366990910
 Te        13.1649661384       13.6874557864       23.6964496105
 Te        10.5687873137       17.5034488607       23.9092907170
 Te        22.4311116272       17.5571649576       11.2326776021
 Te        19.8167290000       21.5892203496       11.4990561541
 Te        22.2527936910       14.5798313713       14.8335321144
 Te        17.2634164873       22.3530125457       15.3250172888
 Te        22.3582960338       11.5452807356       18.3763547149
 Te        14.7700457953       23.3154239044       19.0241863680
 Te        19.8192619213       12.4624649683       22.3410046984
 Te        17.2917392675       16.3577132066       22.4129325376
 Te        14.7368680401       19.9045815139       22.5893224688
 Te        23.9646074439       21.2285629758       14.4557938811
 Te        23.9441986032       18.2478431708       17.9302703312
 Te        21.4232255912       22.1873988803       18.1581301081
 Te        23.8569401724       15.3590287150       21.4764022491
 Te        21.3969467109       19.2224458975       21.7142345654
 Te        18.8713969227       23.0826650397       21.8709341538
     149
 i =       15, E =     -3973.5197628676
 Cd        13.1820250433       14.4432485768       11.7432820526
 Cd        13.3388483924       11.6212151070       15.2802750647
 Cd        10.7531062201       15.2549344356       15.3574788628
 Cd        16.8921565177       16.9002521658       10.7944745242
 Cd        16.9586183814       13.8929832957       14.2049933922
 Cd        14.3790386046       17.8521610413       14.4701745418
 Cd        16.9153260839       10.9712076752       17.7899278828
 Cd        14.3830496832       14.7930324970       18.0793388912
 Cd        12.0545389109       18.7142302349       18.2865436409
 Cd        20.6340648128       16.4254972214       13.3791302558
 Cd        18.1583260722       20.2529949675       13.6371251168
 Cd        20.5932735512       13.4759128869       16.8806568498
 Cd        18.2566564296       17.3527657267       17.1313725757
 Cd        15.6799359852       21.0848580406       17.3672419980
 Cd        18.1762605001       14.3296589127       20.6326150513
 Cd        15.7450394812       18.0075038795       20.6844511375
 Cd        12.5288111862       11.2743531727        8.9797030962
 Cd         9.8691487210       15.5229969582        9.3949804050
 Cd        11.9818369301        8.5965423469       12.1567748165
 Cd         9.5781296659       11.6167602255       12.4413539271
 Cd         7.5779811213       16.2033017921       12.9505043037
 Cd         9.8100387813        9.3903412282       16.7355429790
 Cd         7.5804212714       13.0377196137       16.6820480495
 Cd        15.7388267091       13.3837402325        8.0370441638
 Cd        13.0759741763       17.5660967434        8.3627351241
 Cd        15.7661362904       10.2821862810       11.1229485380
 Cd        10.4891054157       18.6656035663       11.7196503630
 Cd        15.4799459735        7.7638683859       14.5269294767
 Cd         8.4250858951       19.2330720919       15.4933389625
 Cd        13.0394914975        8.7381864796       18.8039612260
 Cd        10.4494877625       12.2451159424       19.3438994624
 Cd         8.4124870390       16.0677453799       19.2433090858
 Cd        19.0760365126       15.4434438146        7.5790354163
 Cd        16.3048271333       19.7783284097        7.8577417984
 Cd        19.4005637847       12.6293858028       10.3291004202
 Cd        14.0620069684       21.0000894668       10.8941878545
 Cd        19.3525991894        9.8313815757       13.6279917520
 Cd        11.6977966136       21.8792216895       14.4395123409
 Cd        18.8717612524        7.5914676032       16.7946498816
 Cd         9.8050961936       22.1280251933       17.9573893553
 Cd        16.2548616855        8.6286226798       21.0778361152
 Cd        14.0394809269       11.8152145281       21.7691869543
 Cd        11.6552832705       15.4437018633       22.0500648078
 Cd         9.8098131241       18.9630205562       21.7027239115
 Cd        22.5882728969       14.9738135146       10.0391686444
 Cd        20.3238105502       19.1265910773       10.3125076566
 Cd        17.4992064065       22.9470821411       10.5414451236
 Cd        22.8382187471       12.4306602017       13.0458464225
 Cd        15.4860487529       23.9635170377       13.7846073188
 Cd        22.4933269246        9.8975989279       16.0569035334
 Cd        13.2380463532       24.4958159135       16.9773629319
 Cd        20.2578539595       10.8942064748       20.0816129488
 Cd        13.5284637533       22.1278910720       21.3246048106
 Cd        17.4471762108       11.7811630845       23.7566574673
 Cd        15.4554636345       15.1495478299       24.2396209392
 Cd        13.1661711059       18.2999145235       24.2638689059
 Cd        24.0294476473       18.7836186804       13.2459873019
 Cd        21.7043490838       22.4022806061       13.4683953081
 Cd        24.2429427464       16.1381057923       16.1677494035
 Cd        22.1815549769       19.9944155657       16.5564523169
 Cd        19.5505371506       23.5033762372       16.5967952919
 Cd        23.9402370861       13.7349112279       19.2847035221
 Cd        22.1296121959       17.2236658292       19.8617997475
 Cd        19.7736428592       20.9206852351       20.1188099058
 Cd        17.3586391421       24.1103030649       19.8350968842
 Cd        21.5463391093       14.7099369454       22.7978294909
 Cd        19.3791017364       18.1367665352       23.2829788162
 Cd        16.8871236203       21.6485746726       23.1836662671
 Cl        14.7184929871       23.5888158300       23.0664799716
 Cl        17.2206441584       24.9486534246       12.0013460207
 Cl        11.1415868059       16.1232555764        7.3023743317
 Cl        17.1640079350       13.5377724661       25.5093430110
 Cl         9.3950569889        9.4400836318       11.1002354044
 Cl        25.5489452281       14.1905500208       17.4169799662
 Cl         7.6623801783       18.2162036287       20.6129785904
 Cl        18.4525452874       25.4431146516       17.9800871560
 Cl        14.6983911172        7.0102676400       19.9856799038
 Cl        18.2654116855       19.9653097697       24.7293913143
 Cl        14.7979575715       25.8291881897       15.5140206165
 Cl        13.5460778197       12.4226594403        6.9655709957
 Cl        11.0749745940        7.4147899786       17.6564067692
 Cl         6.4384541733       14.9547157243       17.8557182189
 Cl        20.6609345031       16.1112704823       24.6372210955
 Cl        24.3087757958       10.9101291772       14.6522466812
 Cl        16.9163981852        6.1754348381       16.2491124090
 Cl        24.3653650629       13.7475149453       11.3038686797
 Cl        20.8068920933       24.5063520116       14.4602347274
 Cl         6.4331067108       17.7085272531       14.6101825905
 Cl        13.2953653602        6.7637005015       13.5770229036
 Cl        14.7552732086       18.4109597743        6.4624279657
 Cl        17.1227071495       14.7434072837        6.1990067320
 Cl        25.5942600348       16.9998714382       14.0435280707
 Cl        14.7244393054       17.1035225831       25.8427752088
 Cl         7.6563110352       20.9605756431       17.3621672276
 Te        14.8013730283       12.4562703010       12.9862299290
 Te        12.0978087344       16.6081949044       13.2352116552
 Te        12.0869635555       13.4159001145       17.0817594196
 Te        18.5833034648       14.9607289866       12.0481385539
 Te        15.9046403056       19.0950917034       12.3254542867
 Te        18.5497470281       11.9249738680       15.6382492623
 Te        16.0003151028       15.9702436349       15.9717888524
 Te        13.3745725562       19.9977710299       16.1051707435
 Te        15.9109250247       12.8816069348       19.6647491122
 Te        13.3390050579       16.7395608866       19.8943200157
 Te        19.9478438147       18.5785879370       15.1130904879
 Te        19.9111463989       15.5540137881       18.7070700016
 Te        17.4334810261       19.4474535985       18.9023566260
 Te        13.5255631752        8.8838531684        9.8642012408
 Te        10.9381837447       13.1245421023       10.4088032635
 Te         8.1262906286       17.3282639727       10.4959303071
 Te        11.0634765345       10.1431412865       14.3445107263
 Te         8.4567314296       13.7804419342       14.1023663032
 Te         8.0544350157       10.8341540220       18.2641218254
 Te        17.3227362259       11.3064180177        8.9558951744
 Te        14.7057731189       15.5626426509        9.5737232491
 Te        11.9061348632       19.7908861632        9.5238175626
 Te        17.2797315696        8.2989393481       12.4816450016
 Te         9.3710109465       20.7001544794       13.3386845330
 Te        14.7315989725        9.5532963345       16.6548933555
 Te         9.8062603176       17.3422036867       17.1098447035
 Te        11.8792586470       10.2704133072       20.8010032638
 Te         9.3217055703       14.1859043404       21.0638239474
 Te        21.1290925417       13.7180039973        8.1048710387
 Te        18.4888104053       18.0676024694        8.5138362378
 Te        15.6303510437       22.2994098344        8.6596910887
 Te        21.1273983447       10.7893866349       11.6248619275
 Te        13.1954743637       23.2142433836       12.4221840268
 Te        21.0187687704        7.8078733904       15.1041737630
 Te        10.6532475346       24.0554667619       16.1820008313
 Te        18.4771825277        8.8919446579       19.3229741648
 Te        11.1326211135       20.9007572229       20.1268272365
 Te        15.5740516210        9.8220502822       23.4368522619
 Te        13.1648619140       13.6878822464       23.6954500397
 Te        10.5684060994       17.5044276546       23.9103680015
 Te        22.4306819435       17.5564249712       11.2327949060
 Te        19.8172511739       21.5898414504       11.4983906929
 Te        22.2530606167       14.5797324780       14.8342037776
 Te        17.2640801567       22.3532430491       15.3252181750
 Te        22.3582569819       11.5453645368       18.3761617103
 Te        14.7700889400       23.3154797691       19.0235909832
 Te        19.8202198102       12.4619113565       22.3420001366
 Te        17.2914116254       16.3572330764       22.4138218842
 Te        14.7377087132       19.9049046288       22.5899613911
 Te        23.9654675833       21.2289804734       14.4562028870
 Te        23.9433549395       18.2479748725       17.9295727363
 Te        21.4219635027       22.1876736847       18.1575038811
 Te        23.8578717268       15.3601510867       21.4759893394
 Te        21.3957559207       19.2221972660       21.7141025492
 Te        18.8714041926       23.0840266358       21.8714601525
     149
 i =       16, E =     -3973.5197700222
 Cd        13.1827300504       14.4437489355       11.7433084535
 Cd        13.3383408298       11.6195281038       15.2798760444
 Cd        10.7545068589       15.2558461244       15.3583395221
 Cd        16.8920096145       16.8998418241       10.7940595010
 Cd        16.9592151908       13.8921728576       14.2047589465
 Cd        14.3794233448       17.8536009426       14.4688616604
 Cd        16.9149815370       10.9699056769       17.7898778368
 Cd        14.3837587894       14.7919180827       18.0804237600
 Cd        12.0547194182       18.7135727401       18.2857360653
 Cd        20.6342296136       16.4247814845       13.3796229374
 Cd        18.1587480569       20.2534006236       13.6371088347
 Cd        20.5932238421       13.4765158480       16.8807181432
 Cd        18.2578272349       17.3524228755       17.1315428391
 Cd        15.6805498207       21.0849167972       17.3666662083
 Cd        18.1763580414       14.3294179683       20.6338213297
 Cd        15.7452673081       18.0073465192       20.6853458541
 Cd        12.5279996823       11.2745516209        8.9804049769
 Cd         9.8684962350       15.5229866500        9.3950988709
 Cd        11.9821718354        8.5953025098       12.1569004979
 Cd         9.5788322819       11.6156636224       12.4400585513
 Cd         7.5779707203       16.2022245854       12.9506833288
 Cd         9.8088417766        9.3906605284       16.7356908299
 Cd         7.5800248859       13.0382033660       16.6810685537
 Cd        15.7384735743       13.3837270321        8.0369510241
 Cd        13.0759528867       17.5657400431        8.3627734626
 Cd        15.7659287377       10.2823201158       11.1225415647
 Cd        10.4887299523       18.6654444372       11.7199644362
 Cd        15.4801971864        7.7636644575       14.5268268371
 Cd         8.4253560163       19.2327499238       15.4938874959
 Cd        13.0387737030        8.7387150336       18.8032195885
 Cd        10.4493880004       12.2460750983       19.3433569734
 Cd         8.4122112126       16.0686143048       19.2435577084
 Cd        19.0767568620       15.4429605975        7.5785753826
 Cd        16.3047492041       19.7787668805        7.8572861467
 Cd        19.4001536237       12.6300552397       10.3300393767
 Cd        14.0622847370       20.9996207157       10.8943410798
 Cd        19.3516890515        9.8323464154       13.6287211405
 Cd        11.6976811488       21.8797339170       14.4400736577
 Cd        18.8721386683        7.5905462982       16.7946483428
 Cd         9.8056175763       22.1284735593       17.9581170424
 Cd        16.2538426582        8.6281997363       21.0778389075
 Cd        14.0396500703       11.8159984263       21.7681552303
 Cd        11.6553349097       15.4444216508       22.0498524510
 Cd         9.8101651392       18.9639646115       21.7028268785
 Cd        22.5887535852       14.9728677724       10.0389431719
 Cd        20.3241075920       19.1268791489       10.3114773374
 Cd        17.4989152464       22.9473089733       10.5410283244
 Cd        22.8376307319       12.4307561625       13.0468443448
 Cd        15.4861767913       23.9628490532       13.7852431635
 Cd        22.4931614780        9.8969386877       16.0570051539
 Cd        13.2378137068       24.4967866542       16.9778821153
 Cd        20.2581451206       10.8938575109       20.0818816701
 Cd        13.5299369394       22.1283608819       21.3246194359
 Cd        17.4467567889       11.7807294633       23.7566838388
 Cd        15.4548038420       15.1496447687       24.2396498002
 Cd        13.1661021518       18.3005287067       24.2641109763
 Cd        24.0295798291       18.7840013791       13.2456709286
 Cd        21.7047957355       22.4026648120       13.4685112555
 Cd        24.2425624410       16.1385512508       16.1675697373
 Cd        22.1806807106       19.9944983341       16.5561591606
 Cd        19.5500954744       23.5043161675       16.5971438681
 Cd        23.9402764771       13.7353284334       19.2844011581
 Cd        22.1289280709       17.2241505954       19.8612377650
 Cd        19.7730957706       20.9209108775       20.1188570307
 Cd        17.3579813953       24.1103754925       19.8353545896
 Cd        21.5468969609       14.7106441189       22.7972931364
 Cd        19.3784808046       18.1365302734       23.2825500891
 Cd        16.8876879519       21.6490415756       23.1840648371
 Cl        14.7192053557       23.5894625108       23.0664540862
 Cl        17.2198127083       24.9486597468       12.0016299847
 Cl        11.1403138963       16.1245391280        7.3023926694
 Cl        17.1627948382       13.5373552592       25.5095748460
 Cl         9.3950368287        9.4397502058       11.0988632667
 Cl        25.5492059765       14.1916272311       17.4166422005
 Cl         7.6620540231       18.2162290516       20.6140387507
 Cl        18.4533347002       25.4438434592       17.9814488240
 Cl        14.6968467008        7.0101651680       19.9855860014
 Cl        18.2667540169       19.9662697133       24.7293426014
 Cl        14.7971057913       25.8295242710       15.5132894091
 Cl        13.5464449796       12.4209485226        6.9656210369
 Cl        11.0731338205        7.4150914072       17.6577177354
 Cl         6.4383006344       14.9547368880       17.8567229411
 Cl        20.6609148772       16.1122952841       24.6368024743
 Cl        24.3086102225       10.9092671458       14.6517432157
 Cl        16.9161477540        6.1748599067       16.2480291389
 Cl        24.3653626306       13.7460002974       11.3043423084
 Cl        20.8069222528       24.5067207099       14.4608991079
 Cl         6.4334057776       17.7090318450       14.6097653514
 Cl        13.2963153942        6.7623140789       13.5759662639
 Cl        14.7544040720       18.4112611041        6.4623620069
 Cl        17.1228708843       14.7425447333        6.1988913649
 Cl        25.5944688543       17.0000789339       14.0439040682
 Cl        14.7227044583       17.1025532890       25.8436806142
 Cl         7.6566795014       20.9611840956       17.3617166327
 Te        14.8008991783       12.4561188151       12.9865397995
 Te        12.0979424319       16.6086097579       13.2349899241
 Te        12.0875897094       13.4152270680       17.0814805943
 Te        18.5834846130       14.9609536529       12.0479315474
 Te        15.9057480957       19.0955730544       12.3244405442
 Te        18.5500164682       11.9246822534       15.6392426560
 Te        16.0005345263       15.9703037108       15.9715104117
 Te        13.3746768725       19.9983660968       16.1050198962
 Te        15.9120812366       12.8804795781       19.6652598893
 Te        13.3393663162       16.7395737909       19.8944081110
 Te        19.9481698517       18.5786429863       15.1125511655
 Te        19.9113529521       15.5535449732       18.7081311377
 Te        17.4330375838       19.4470654687       18.9024629341
 Te        13.5248784488        8.8837266111        9.8637345115
 Te        10.9386324384       13.1252391227       10.4094090887
 Te         8.1256262397       17.3278412364       10.4960973999
 Te        11.0629385006       10.1421762364       14.3440641697
 Te         8.4587525818       13.7798611804       14.1019674176
 Te         8.0535082193       10.8347760227       18.2638667184
 Te        17.3229782181       11.3070713966        8.9558314120
 Te        14.7056086253       15.5624965367        9.5735143110
 Te        11.9062904273       19.7904047420        9.5242197746
 Te        17.2796496964        8.2993489102       12.4818245779
 Te         9.3711410998       20.6999746083       13.3393880406
 Te        14.7314466998        9.5525352874       16.6546709850
 Te         9.8062469751       17.3421085164       17.1101788054
 Te        11.8792080986       10.2711656602       20.8004725739
 Te         9.3214827541       14.1866228959       21.0638447225
 Te        21.1294948352       13.7169745319        8.1046880720
 Te        18.4886854921       18.0673221840        8.5132958567
 Te        15.6299312236       22.2998509703        8.6591789815
 Te        21.1268309097       10.7898837031       11.6256904867
 Te        13.1959089185       23.2137273184       12.4224346938
 Te        21.0185554563        7.8072107241       15.1035467378
 Te        10.6531603377       24.0563886490       16.1828743080
 Te        18.4772827449        8.8910933582       19.3235153025
 Te        11.1341231229       20.9008603370       20.1268777689
 Te        15.5729558294        9.8218939561       23.4370389600
 Te        13.1644492375       13.6878479077       23.6950599856
 Te        10.5682277033       17.5054860674       23.9109117660
 Te        22.4302428705       17.5558288634       11.2329776628
 Te        19.8176636226       21.5901938675       11.4979299341
 Te        22.2531226517       14.5797376048       14.8347681996
 Te        17.2645063124       22.3533054167       15.3253849989
 Te        22.3583097815       11.5454783372       18.3759961455
 Te        14.7702241006       23.3152006569       19.0231235333
 Te        19.8207931892       12.4614273541       22.3428004563
 Te        17.2910637770       16.3569328363       22.4143872985
 Te        14.7382804614       19.9051433090       22.5900525774
 Te        23.9660273565       21.2292165458       14.4563207233
 Te        23.9429221827       18.2484169161       17.9292892712
 Te        21.4215172160       22.1879324633       18.1572097167
 Te        23.8585123812       15.3610341706       21.4757963594
 Te        21.3951919669       19.2220452602       21.7140854862
 Te        18.8713908968       23.0850731454       21.8716344544
     149
 i =       17, E =     -3973.5197752218
 Cd        13.1833031875       14.4442574470       11.7432812539
 Cd        13.3378288761       11.6180347135       15.2794880776
 Cd        10.7558236782       15.2565009543       15.3588013542
 Cd        16.8918789202       16.8993575854       10.7940442378
 Cd        16.9596641164       13.8910425354       14.2042349907
 Cd        14.3794775562       17.8552641828       14.4675432417
 Cd        16.9145517785       10.9690195220       17.7895307020
 Cd        14.3840801998       14.7907869048       18.0817153754
 Cd        12.0551639803       18.7131707050       18.2852417867
 Cd        20.6340603585       16.4241354000       13.3802212978
 Cd        18.1590539134       20.2533291642       13.6372907029
 Cd        20.5928463622       13.4772024981       16.8806991548
 Cd        18.2591182492       17.3524119210       17.1320543381
 Cd        15.6810228587       21.0850816981       17.3662149078
 Cd        18.1762744216       14.3293781314       20.6346985989
 Cd        15.7455028951       18.0072104613       20.6861177891
 Cd        12.5275718408       11.2748561165        8.9811899470
 Cd         9.8682224624       15.5228920742        9.3953829661
 Cd        11.9826850977        8.5941855646       12.1568955497
 Cd         9.5795162100       11.6151290134       12.4389526306
 Cd         7.5786677371       16.2011263601       12.9513085497
 Cd         9.8080361323        9.3911145318       16.7355101544
 Cd         7.5801913664       13.0391733905       16.6801569624
 Cd        15.7382861169       13.3834073218        8.0369136686
 Cd        13.0756778559       17.5658205626        8.3629693987
 Cd        15.7656835898       10.2826471080       11.1225507023
 Cd        10.4887207449       18.6652551107       11.7205752307
 Cd        15.4804853001        7.7634653243       14.5266536838
 Cd         8.4255603709       19.2327171392       15.4939896996
 Cd        13.0378619918        8.7393664834       18.8028421461
 Cd        10.4496798941       12.2472135063       19.3428921283
 Cd         8.4117549179       16.0690653590       19.2442068054
 Cd        19.0774637153       15.4424430029        7.5779950961
 Cd        16.3046677608       19.7789224330        7.8568642896
 Cd        19.3995327123       12.6307521167       10.3313278621
 Cd        14.0623755947       20.9989517458       10.8948245535
 Cd        19.3508199786        9.8337405390       13.6292510232
 Cd        11.6977955093       21.8798244949       14.4404827084
 Cd        18.8723504956        7.5894926658       16.7948083536
 Cd         9.8065249218       22.1282492387       17.9587667677
 Cd        16.2525868303        8.6277525877       21.0781389828
 Cd        14.0396527936       11.8170044123       21.7669600885
 Cd        11.6555979403       15.4447191990       22.0492884093
 Cd         9.8107906957       18.9646013680       21.7024789712
 Cd        22.5893178859       14.9720315302       10.0388516268
 Cd        20.3245205101       19.1270826496       10.3104691547
 Cd        17.4987011620       22.9473847478       10.5408674617
 Cd        22.8368782743       12.4306400855       13.0476256351
 Cd        15.4859574952       23.9623073500       13.7855482309
 Cd        22.4928975089        9.8962873840       16.0569551309
 Cd        13.2379818026       24.4972983184       16.9782657940
 Cd        20.2584203617       10.8933642298       20.0822663878
 Cd        13.5310618452       22.1285424355       21.3243273946
 Cd        17.4460852490       11.7802647789       23.7568855143
 Cd        15.4538491324       15.1494964952       24.2395479669
 Cd        13.1662523303       18.3010430345       24.2641617007
 Cd        24.0296730915       18.7841436548       13.2453566711
 Cd        21.7051438375       22.4032657557       13.4686149928
 Cd        24.2421371098       16.1393948609       16.1677200617
 Cd        22.1796711107       19.9943002218       16.5559210127
 Cd        19.5500480820       23.5051586474       16.5977215338
 Cd        23.9405018498       13.7358619483       19.2842469576
 Cd        22.1280399429       17.2246295294       19.8603367378
 Cd        19.7725191921       20.9208346500       20.1186202550
 Cd        17.3575514798       24.1102937089       19.8353562816
 Cd        21.5474259410       14.7110955010       22.7970436788
 Cd        19.3781385804       18.1364040754       23.2822389603
 Cd        16.8882975407       21.6493958078       23.1843175195
 Cl        14.7197592048       23.5894980973       23.0661095759
 Cl        17.2192742299       24.9485034281       12.0019754026
 Cl        11.1391471473       16.1254364516        7.3026466238
 Cl        17.1617652123       13.5370362025       25.5097805445
 Cl         9.3952657037        9.4397786489       11.0979823445
 Cl        25.5492525240       14.1926169733       17.4161689901
 Cl         7.6619332580       18.2166664624       20.6148969255
 Cl        18.4537740379       25.4446432208       17.9825533914
 Cl        14.6955331366        7.0100470125       19.9853364969
 Cl        18.2677666568       19.9668738422       24.7292844069
 Cl        14.7964356808       25.8297626387       15.5128671324
 Cl        13.5465708637       12.4195400819        6.9657081596
 Cl        11.0713536543        7.4155625700       17.6586742821
 Cl         6.4380559700       14.9548377346       17.8571635858
 Cl        20.6606295253       16.1131377656       24.6363371184
 Cl        24.3083549770       10.9086600954       14.6514287058
 Cl        16.9156848951        6.1744717939       16.2470032461
 Cl        24.3652424169       13.7447774390       11.3050177907
 Cl        20.8067508272       24.5071874667       14.4613304197
 Cl         6.4338284359       17.7090336532       14.6094241237
 Cl        13.2971907416        6.7612141963       13.5752440692
 Cl        14.7536936997       18.4113595805        6.4623688800
 Cl        17.1229214711       14.7419632102        6.1988736125
 Cl        25.5943971256       17.0001533408       14.0441847804
 Cl        14.7212680658       17.1018112503       25.8443479580
 Cl         7.6573622567       20.9616607221       17.3615858534
 Te        14.8002777296       12.4559204331       12.9866456597
 Te        12.0981415382       16.6088351242       13.2346827097
 Te        12.0881692276       13.4145330112       17.0809593048
 Te        18.5835695297       14.9610520551       12.0478183867
 Te        15.9066873453       19.0960574100       12.3234311925
 Te        18.5502587451       11.9243332038       15.6399336742
 Te        16.0008718428       15.9703225291       15.9712131331
 Te        13.3748693227       19.9990447071       16.1050747726
 Te        15.9130350277       12.8793675953       19.6656993694
 Te        13.3398055737       16.7396917027       19.8945444942
 Te        19.9485037229       18.5786407410       15.1121988085
 Te        19.9115287613       15.5530305508       18.7091240652
 Te        17.4325342575       19.4469108578       18.9026193527
 Te        13.5245224254        8.8839058963        9.8634883160
 Te        10.9394327178       13.1261875206       10.4101965155
 Te         8.1251157196       17.3272333378       10.4966572346
 Te        11.0625058626       10.1414678453       14.3437470987
 Te         8.4607713868       13.7793599498       14.1015806449
 Te         8.0526431202       10.8357887103       18.2632263519
 Te        17.3233402853       11.3072745684        8.9560619304
 Te        14.7056043619       15.5624100657        9.5734036756
 Te        11.9062144997       19.7902724113        9.5247688734
 Te        17.2798885354        8.2997462103       12.4817133536
 Te         9.3712708418       20.7001553418       13.3396594092
 Te        14.7312485577        9.5519536316       16.6544104246
 Te         9.8063829319       17.3420707078       17.1104686414
 Te        11.8790384680       10.2719294705       20.8002110801
 Te         9.3213966072       14.1870322610       21.0639916784
 Te        21.1295620925       13.7161801103        8.1048700158
 Te        18.4884172292       18.0669400478        8.5130142518
 Te        15.6294807194       22.2999791035        8.6589592946
 Te        21.1260986416       10.7902634213       11.6262957059
 Te        13.1959561559       23.2132749091       12.4224343126
 Te        21.0184084066        7.8069928513       15.1029603405
 Te        10.6531811512       24.0568851583       16.1838603087
 Te        18.4770833224        8.8905241176       19.3237422815
 Te        11.1356492376       20.9009880597       20.1268026684
 Te        15.5719588824        9.8220428457       23.4368769370
 Te        13.1639092613       13.6875871070       23.6947088718
 Te        10.5682433933       17.5066733341       23.9108069336
 Te        22.4295387537       17.5550609438       11.2335073441
 Te        19.8178188001       21.5903146728       11.4977811739
 Te        22.2528833822       14.5798627703       14.8353604181
 Te        17.2649250036       22.3532620862       15.3254718254
 Te        22.3581911604       11.5457389211       18.3757443318
 Te        14.7704457958       23.3146578195       19.0224497288
 Te        19.8211180596       12.4612944169       22.3433695527
 Te        17.2907242655       16.3567242282       22.4147863695
 Te        14.7388468920       19.9052804897       22.5899437402
 Te        23.9662507213       21.2294545745       14.4562771320
 Te        23.9423326544       18.2490629855       17.9291969658
 Te        21.4214265029       22.1879610332       18.1571620866
 Te        23.8590845297       15.3617651653       21.4752534749
 Te        21.3949462608       19.2220657344       21.7139046759
 Te        18.8714861036       23.0858206595       21.8713761379
     149
 i =       18, E =     -3973.5197787531
 Cd        13.1835495839       14.4444504824       11.7434515216
 Cd        13.3374271170       11.6173973117       15.2790894346
 Cd        10.7565447450       15.2565824439       15.3588103174
 Cd        16.8919941649       16.8992857483       10.7939598053
 Cd        16.9594801460       13.8904029737       14.2040102860
 Cd        14.3795437555       17.8562461783       14.4670221039
 Cd        16.9144537090       10.9684365944       17.7894570719
 Cd        14.3841812591       14.7903213258       18.0823418671
 Cd        12.0556884333       18.7132570858       18.2853117416
 Cd        20.6338241861       16.4240720389       13.3803120509
 Cd        18.1593634609       20.2532283771       13.6371960478
 Cd        20.5926185431       13.4772136531       16.8810535467
 Cd        18.2595029292       17.3525642906       17.1325422365
 Cd        15.6812118361       21.0850900998       17.3661855471
 Cd        18.1762942799       14.3291401461       20.6353190550
 Cd        15.7455677731       18.0072446139       20.6863465043
 Cd        12.5274910065       11.2751148401        8.9815397280
 Cd         9.8680071181       15.5231730185        9.3955770384
 Cd        11.9830464336        8.5934937323       12.1569426541
 Cd         9.5797322173       11.6149938736       12.4383897741
 Cd         7.5794917264       16.2005557550       12.9519137958
 Cd         9.8074128534        9.3915153388       16.7355678729
 Cd         7.5805985813       13.0401723606       16.6796621237
 Cd        15.7383762108       13.3828238872        8.0367256934
 Cd        13.0752503315       17.5661997319        8.3630567137
 Cd        15.7655634270       10.2827821901       11.1227150734
 Cd        10.4886229422       18.6651972103       11.7210326781
 Cd        15.4808719875        7.7630554972       14.5261193082
 Cd         8.4255477877       19.2329808699       15.4937196575
 Cd        13.0370480559        8.7395795510       18.8028697380
 Cd        10.4498012700       12.2478548215       19.3425558212
 Cd         8.4111938875       16.0692432546       19.2447748034
 Cd        19.0777136313       15.4422654140        7.5775471831
 Cd        16.3045421806       19.7789048767        7.8566185678
 Cd        19.3990296146       12.6311287007       10.3320558743
 Cd        14.0623059502       20.9986889817       10.8951375224
 Cd        19.3502518377        9.8344506205       13.6294640247
 Cd        11.6977989036       21.8798909335       14.4406535132
 Cd        18.8724265550        7.5887831932       16.7948769438
 Cd         9.8072566515       22.1278867291       17.9589512398
 Cd        16.2518467496        8.6272965226       21.0780583410
 Cd        14.0394914305       11.8176749995       21.7661547455
 Cd        11.6557907901       15.4448580046       22.0489133118
 Cd         9.8112767276       18.9649773766       21.7018570504
 Cd        22.5897447471       14.9715302990       10.0389044956
 Cd        20.3246365139       19.1272167633       10.3098869443
 Cd        17.4985217138       22.9473436696       10.5408608188
 Cd        22.8366019552       12.4302590004       13.0479771481
 Cd        15.4855286042       23.9621927015       13.7854582966
 Cd        22.4927967842        9.8960947380       16.0570280116
 Cd        13.2379990213       24.4974682349       16.9781457269
 Cd        20.2585124400       10.8930268709       20.0825135492
 Cd        13.5314642601       22.1285369800       21.3240644976
 Cd        17.4458694251       11.7802569320       23.7570256560
 Cd        15.4531023756       15.1492535475       24.2397127579
 Cd        13.1664108622       18.3012930703       24.2641933163
 Cd        24.0296882323       18.7842390850       13.2451975720
 Cd        21.7051682318       22.4038069639       13.4686283412
 Cd        24.2421470201       16.1401335866       16.1679803380
 Cd        22.1791042535       19.9944015778       16.5557279024
 Cd        19.5504056737       23.5058217637       16.5982953617
 Cd        23.9407009738       13.7359690667       19.2839731231
 Cd        22.1274953655       17.2250114819       19.8599899957
 Cd        19.7722051832       20.9207079190       20.1184010787
 Cd        17.3574781688       24.1103458800       19.8352032305
 Cd        21.5478380132       14.7112862097       22.7970108018
 Cd        19.3783376923       18.1366630966       23.2821703294
 Cd        16.8888282548       21.6496274381       23.1844542973
 Cl        14.7201020547       23.5892526513       23.0657440799
 Cl        17.2191883001       24.9483484693       12.0021116945
 Cl        11.1384330411       16.1257593596        7.3027593653
 Cl        17.1612017378       13.5367943937       25.5099073928
 Cl         9.3956037728        9.4399789013       11.0976193264
 Cl        25.5492294180       14.1931579328       17.4158164168
 Cl         7.6619594219       18.2172957075       20.6153860109
 Cl        18.4538943469       25.4453521925       17.9830725744
 Cl        14.6948115354        7.0099228043       19.9851227747
 Cl        18.2682771677       19.9671235775       24.7294429778
 Cl        14.7961704196       25.8300124584       15.5127834435
 Cl        13.5465062894       12.4188168447        6.9656242888
 Cl        11.0701475917        7.4158372180       17.6591013640
 Cl         6.4377680817       14.9549717708       17.8570734128
 Cl        20.6604580307       16.1133776225       24.6360504915
 Cl        24.3082291235       10.9083398119       14.6513818424
 Cl        16.9154612698        6.1741714562       16.2465356277
 Cl        24.3652325869       13.7442173022       11.3054770824
 Cl        20.8066249924       24.5075859509       14.4613520562
 Cl         6.4340635439       17.7086621736       14.6092500758
 Cl        13.2976308481        6.7604155848       13.5749342522
 Cl        14.7533743986       18.4113491970        6.4623090464
 Cl        17.1229882024       14.7417898554        6.1988052268
 Cl        25.5942785254       17.0001937962       14.0441715573
 Cl        14.7204820898       17.1014877175       25.8447299310
 Cl         7.6579259716       20.9619552794       17.3618062689
 Te        14.7998914265       12.4556528010       12.9865124242
 Te        12.0983823877       16.6089857500       13.2345215923
 Te        12.0885469788       13.4141476981       17.0806058345
 Te        18.5835118234       14.9610094797       12.0478773526
 Te        15.9072253887       19.0963431357       12.3228643696
 Te        18.5502916089       11.9241542569       15.6401633419
 Te        16.0010982245       15.9703300161       15.9710562201
 Te        13.3750312846       19.9994221561       16.1051885684
 Te        15.9135343581       12.8788394384       19.6658579192
 Te        13.3400780214       16.7397290545       19.8946467077
 Te        19.9486944445       18.5785868758       15.1122303876
 Te        19.9115791822       15.5527880337       18.7096910483
 Te        17.4323343101       19.4469504017       18.9027769439
 Te        13.5246272468        8.8840057425        9.8633458328
 Te        10.9400370275       13.1267101513       10.4106408888
 Te         8.1248977690       17.3267325737       10.4973932862
 Te        11.0621821778       10.1409097479       14.3433426895
 Te         8.4620057229       13.7790956799       14.1014434456
 Te         8.0523407585       10.8367099693       18.2625695894
 Te        17.3236764218       11.3069946334        8.9562655840
 Te        14.7056194838       15.5624028044        9.5732410135
 Te        11.9058543128       19.7905709991        9.5250853260
 Te        17.2801591117        8.2999905913       12.4814608356
 Te         9.3712357360       20.7005942953       13.3394608084
 Te        14.7309940353        9.5515337014       16.6542811689
 Te         9.8065002180       17.3420531822       17.1107281409
 Te        11.8786143542       10.2724004907       20.8003564501
 Te         9.3212869168       14.1869357683       21.0644806248
 Te        21.1295469695       13.7157071145        8.1052560495
 Te        18.4883480199       18.0666227408        8.5128711712
 Te        15.6293646873       22.2997310898        8.6591365543
 Te        21.1256680827       10.7901762336       11.6263231448
 Te        13.1956178541       23.2131857448       12.4222172240
 Te        21.0180063203        7.8069751219       15.1026762258
 Te        10.6533061129       24.0568365545       16.1845544862
 Te        18.4767263683        8.8901486067       19.3239532445
 Te        11.1365613062       20.9009320030       20.1267951454
 Te        15.5711686153        9.8222338786       23.4367714435
 Te        13.1631775425       13.6871969308       23.6946850613
 Te        10.5684089563       17.5073417263       23.9104207503
 Te        22.4291620388       17.5545192168       11.2338229921
 Te        19.8179479870       21.5902486809       11.4977278052
 Te        22.2527754850       14.5799738267       14.8356940939
 Te        17.2652435141       22.3532696155       15.3254592249
 Te        22.3581017298       11.5458945147       18.3756286457
 Te        14.7707270189       23.3143200288       19.0220741381
 Te        19.8211560721       12.4611498016       22.3437786182
 Te        17.2904360573       16.3565776473       22.4151372901
 Te        14.7392490632       19.9054054201       22.5900327063
 Te        23.9661154622       21.2294254050       14.4560848902
 Te        23.9422059174       18.2498681848       17.9293983579
 Te        21.4216998255       22.1879116780       18.1573803804
 Te        23.8591261990       15.3622484298       21.4749420079
 Te        21.3949610794       19.2222673763       21.7136972792
 Te        18.8717213870       23.0860333275       21.8710827186
     149
 i =       19, E =     -3973.5197787489
 Cd        13.1835495839       14.4444504824       11.7434515216
 Cd        13.3374271170       11.6173973117       15.2790894346
 Cd        10.7565447450       15.2565824439       15.3588103174
 Cd        16.8919941649       16.8992857483       10.7939598053
 Cd        16.9594801460       13.8904029737       14.2040102860
 Cd        14.3795437555       17.8562461783       14.4670221039
 Cd        16.9144537090       10.9684365944       17.7894570719
 Cd        14.3841812591       14.7903213258       18.0823418671
 Cd        12.0556884333       18.7132570858       18.2853117416
 Cd        20.6338241861       16.4240720389       13.3803120509
 Cd        18.1593634609       20.2532283771       13.6371960478
 Cd        20.5926185431       13.4772136531       16.8810535467
 Cd        18.2595029292       17.3525642906       17.1325422365
 Cd        15.6812118361       21.0850900998       17.3661855471
 Cd        18.1762942799       14.3291401461       20.6353190550
 Cd        15.7455677731       18.0072446139       20.6863465043
 Cd        12.5274910065       11.2751148401        8.9815397280
 Cd         9.8680071181       15.5231730185        9.3955770384
 Cd        11.9830464336        8.5934937323       12.1569426541
 Cd         9.5797322173       11.6149938736       12.4383897741
 Cd         7.5794917264       16.2005557550       12.9519137958
 Cd         9.8074128534        9.3915153388       16.7355678729
 Cd         7.5805985813       13.0401723606       16.6796621237
 Cd        15.7383762108       13.3828238872        8.0367256934
 Cd        13.0752503315       17.5661997319        8.3630567137
 Cd        15.7655634270       10.2827821901       11.1227150734
 Cd        10.4886229422       18.6651972103       11.7210326781
 Cd        15.4808719875        7.7630554972       14.5261193082
 Cd         8.4255477877       19.2329808699       15.4937196575
 Cd        13.0370480559        8.7395795510       18.8028697380
 Cd        10.4498012700       12.2478548215       19.3425558212
 Cd         8.4111938875       16.0692432546       19.2447748034
 Cd        19.0777136313       15.4422654140        7.5775471831
 Cd        16.3045421806       19.7789048767        7.8566185678
 Cd        19.3990296146       12.6311287007       10.3320558743
 Cd        14.0623059502       20.9986889817       10.8951375224
 Cd        19.3502518377        9.8344506205       13.6294640247
 Cd        11.6977989036       21.8798909335       14.4406535132
 Cd        18.8724265550        7.5887831932       16.7948769438
 Cd         9.8072566515       22.1278867291       17.9589512398
 Cd        16.2518467496        8.6272965226       21.0780583410
 Cd        14.0394914305       11.8176749995       21.7661547455
 Cd        11.6557907901       15.4448580046       22.0489133118
 Cd         9.8112767276       18.9649773766       21.7018570504
 Cd        22.5897447471       14.9715302990       10.0389044956
 Cd        20.3246365139       19.1272167633       10.3098869443
 Cd        17.4985217138       22.9473436696       10.5408608188
 Cd        22.8366019552       12.4302590004       13.0479771481
 Cd        15.4855286042       23.9621927015       13.7854582966
 Cd        22.4927967842        9.8960947380       16.0570280116
 Cd        13.2379990213       24.4974682349       16.9781457269
 Cd        20.2585124400       10.8930268709       20.0825135492
 Cd        13.5314642601       22.1285369800       21.3240644976
 Cd        17.4458694251       11.7802569320       23.7570256560
 Cd        15.4531023756       15.1492535475       24.2397127579
 Cd        13.1664108622       18.3012930703       24.2641933163
 Cd        24.0296882323       18.7842390850       13.2451975720
 Cd        21.7051682318       22.4038069639       13.4686283412
 Cd        24.2421470201       16.1401335866       16.1679803380
 Cd        22.1791042535       19.9944015778       16.5557279024
 Cd        19.5504056737       23.5058217637       16.5982953617
 Cd        23.9407009738       13.7359690667       19.2839731231
 Cd        22.1274953655       17.2250114819       19.8599899957
 Cd        19.7722051832       20.9207079190       20.1184010787
 Cd        17.3574781688       24.1103458800       19.8352032305
 Cd        21.5478380132       14.7112862097       22.7970108018
 Cd        19.3783376923       18.1366630966       23.2821703294
 Cd        16.8888282548       21.6496274381       23.1844542973
 Cl        14.7201020547       23.5892526513       23.0657440799
 Cl        17.2191883001       24.9483484693       12.0021116945
 Cl        11.1384330411       16.1257593596        7.3027593653
 Cl        17.1612017378       13.5367943937       25.5099073928
 Cl         9.3956037728        9.4399789013       11.0976193264
 Cl        25.5492294180       14.1931579328       17.4158164168
 Cl         7.6619594219       18.2172957075       20.6153860109
 Cl        18.4538943469       25.4453521925       17.9830725744
 Cl        14.6948115354        7.0099228043       19.9851227747
 Cl        18.2682771677       19.9671235775       24.7294429778
 Cl        14.7961704196       25.8300124584       15.5127834435
 Cl        13.5465062894       12.4188168447        6.9656242888
 Cl        11.0701475917        7.4158372180       17.6591013640
 Cl         6.4377680817       14.9549717708       17.8570734128
 Cl        20.6604580307       16.1133776225       24.6360504915
 Cl        24.3082291235       10.9083398119       14.6513818424
 Cl        16.9154612698        6.1741714562       16.2465356277
 Cl        24.3652325869       13.7442173022       11.3054770824
 Cl        20.8066249924       24.5075859509       14.4613520562
 Cl         6.4340635439       17.7086621736       14.6092500758
 Cl        13.2976308481        6.7604155848       13.5749342522
 Cl        14.7533743986       18.4113491970        6.4623090464
 Cl        17.1229882024       14.7417898554        6.1988052268
 Cl        25.5942785254       17.0001937962       14.0441715573
 Cl        14.7204820898       17.1014877175       25.8447299310
 Cl         7.6579259716       20.9619552794       17.3618062689
 Te        14.7998914265       12.4556528010       12.9865124242
 Te        12.0983823877       16.6089857500       13.2345215923
 Te        12.0885469788       13.4141476981       17.0806058345
 Te        18.5835118234       14.9610094797       12.0478773526
 Te        15.9072253887       19.0963431357       12.3228643696
 Te        18.5502916089       11.9241542569       15.6401633419
 Te        16.0010982245       15.9703300161       15.9710562201
 Te        13.3750312846       19.9994221561       16.1051885684
 Te        15.9135343581       12.8788394384       19.6658579192
 Te        13.3400780214       16.7397290545       19.8946467077
 Te        19.9486944445       18.5785868758       15.1122303876
 Te        19.9115791822       15.5527880337       18.7096910483
 Te        17.4323343101       19.4469504017       18.9027769439
 Te        13.5246272468        8.8840057425        9.8633458328
 Te        10.9400370275       13.1267101513       10.4106408888
 Te         8.1248977690       17.3267325737       10.4973932862
 Te        11.0621821778       10.1409097479       14.3433426895
 Te         8.4620057229       13.7790956799       14.1014434456
 Te         8.0523407585       10.8367099693       18.2625695894
 Te        17.3236764218       11.3069946334        8.9562655840
 Te        14.7056194838       15.5624028044        9.5732410135
 Te        11.9058543128       19.7905709991        9.5250853260
 Te        17.2801591117        8.2999905913       12.4814608356
 Te         9.3712357360       20.7005942953       13.3394608084
 Te        14.7309940353        9.5515337014       16.6542811689
 Te         9.8065002180       17.3420531822       17.1107281409
 Te        11.8786143542       10.2724004907       20.8003564501
 Te         9.3212869168       14.1869357683       21.0644806248
 Te        21.1295469695       13.7157071145        8.1052560495
 Te        18.4883480199       18.0666227408        8.5128711712
 Te        15.6293646873       22.2997310898        8.6591365543
 Te        21.1256680827       10.7901762336       11.6263231448
 Te        13.1956178541       23.2131857448       12.4222172240
 Te        21.0180063203        7.8069751219       15.1026762258
 Te        10.6533061129       24.0568365545       16.1845544862
 Te        18.4767263683        8.8901486067       19.3239532445
 Te        11.1365613062       20.9009320030       20.1267951454
 Te        15.5711686153        9.8222338786       23.4367714435
 Te        13.1631775425       13.6871969308       23.6946850613
 Te        10.5684089563       17.5073417263       23.9104207503
 Te        22.4291620388       17.5545192168       11.2338229921
 Te        19.8179479870       21.5902486809       11.4977278052
 Te        22.2527754850       14.5799738267       14.8356940939
 Te        17.2652435141       22.3532696155       15.3254592249
 Te        22.3581017298       11.5458945147       18.3756286457
 Te        14.7707270189       23.3143200288       19.0220741381
 Te        19.8211560721       12.4611498016       22.3437786182
 Te        17.2904360573       16.3565776473       22.4151372901
 Te        14.7392490632       19.9054054201       22.5900327063
 Te        23.9661154622       21.2294254050       14.4560848902
 Te        23.9422059174       18.2498681848       17.9293983579
 Te        21.4216998255       22.1879116780       18.1573803804
 Te        23.8591261990       15.3622484298       21.4749420079
 Te        21.3949610794       19.2222673763       21.7136972792
 Te        18.8717213870       23.0860333275       21.8710827186
