78

Cd      0.000000000000000      0.000000000000000      9.000000000000000
Te      2.291025971044414      3.968173383308748     11.805922308261581
Cd      4.582051942088828      2.645448922205832     12.741229744348775
Te      4.582051942088827      2.645448922205832     15.547152052610356
Cd      2.291025971044414      1.322724461102916     16.482459488697550
Te      2.291025971044412      1.322724461102915     19.288381796959129
Cd      2.291025971044415      3.968173383308748      9.000000000000000
Te      4.582051942088829      7.936346766617496     11.805922308261581
Cd      6.873077913133243      6.613622305514580     12.741229744348775
Te      6.873077913133242      6.613622305514579     15.547152052610356
Cd      4.582051942088827      5.290897844411663     16.482459488697550
Te      4.582051942088826      5.290897844411663     19.288381796959129
Cd      4.582051942088830      7.936346766617497      9.000000000000000
Te      6.873077913133244     11.904520149926244     11.805922308261581
Cd      9.164103884177656     10.581795688823327     12.741229744348775
Te      9.164103884177655     10.581795688823327     15.547152052610356
Cd      6.873077913133244      9.259071227720414     16.482459488697550
Te      6.873077913133242      9.259071227720412     19.288381796959129
Cd      6.873077913133244     11.904520149926244      9.000000000000000
Te      9.164103884177658     15.872693533234992     11.805922308261581
Cd     11.455129855222072     14.549969072132077     12.741229744348775
Te     11.455129855222072     14.549969072132077     15.547152052610356
Cd      9.164103884177656     13.227244611029160     16.482459488697550
Te      9.164103884177655     13.227244611029160     19.288381796959129
Cd      9.164103884177660     15.872693533234994      9.000000000000000
Te      6.873077913133243      3.968173383308751     11.805922308261581
Cd      9.164103884177658      2.645448922205835     12.741229744348775
Te      9.164103884177658      2.645448922205835     15.547152052610356
Cd     11.455129855222074     17.195417994337912     16.482459488697550
Te     11.455129855222072     17.195417994337909     19.288381796959129
Cd      6.873077913133242      3.968173383308748      9.000000000000000
Te      9.164103884177656      7.936346766617496     11.805922308261581
Cd     11.455129855222070      6.613622305514580     12.741229744348775
Te     11.455129855222069      6.613622305514581     15.547152052610356
Cd      9.164103884177656      5.290897844411665     16.482459488697550
Te      9.164103884177655      5.290897844411663     19.288381796959129
Cd      9.164103884177658      7.936346766617497      9.000000000000000
Te     11.455129855222072     11.904520149926245     11.805922308261581
Cd     13.746155826266484     10.581795688823329     12.741229744348775
Te     13.746155826266483     10.581795688823330     15.547152052610356
Cd     11.455129855222070      9.259071227720412     16.482459488697550
Te     11.455129855222069      9.259071227720412     19.288381796959129
Cd     11.455129855222074     11.904520149926247      9.000000000000000
Te     13.746155826266488     15.872693533234994     11.805922308261581
Cd     16.037181797310900     14.549969072132077     12.741229744348775
Te     16.037181797310900     14.549969072132077     15.547152052610356
Cd     13.746155826266488     13.227244611029160     16.482459488697550
Te     13.746155826266486     13.227244611029160     19.288381796959129
Cd     13.746155826266488     15.872693533234996      9.000000000000000
Te     11.455129855222070      3.968173383308751     11.805922308261581
Cd     18.328207768355316     18.518142455440824     12.741229744348775
Te     18.328207768355316     18.518142455440824     15.547152052610356
Cd     16.037181797310900     17.195417994337909     16.482459488697550
Te     16.037181797310900     17.195417994337909     19.288381796959129
Cd     11.455129855222072      3.968173383308748      9.000000000000000
Te     13.746155826266484      7.936346766617495     11.805922308261581
Cd     16.037181797310897      6.613622305514580     12.741229744348775
Te     16.037181797310897      6.613622305514579     15.547152052610356
Cd     13.746155826266484      5.290897844411663     16.482459488697550
Te     13.746155826266483      5.290897844411663     19.288381796959129
Cd     13.746155826266484      7.936346766617497      9.000000000000000
Te     16.037181797310900     11.904520149926245     11.805922308261581
Cd      2.291025971044415      6.613622305514582     12.741229744348775
Te      2.291025971044415      6.613622305514582     15.547152052610356
Cd     16.037181797310900      9.259071227720412     16.482459488697550
Te     16.037181797310897      9.259071227720414     19.288381796959129
Cd     16.037181797310904     11.904520149926245      9.000000000000000
Te     18.328207768355320     15.872693533234994     11.805922308261581
Cd      4.582051942088832     10.581795688823329     12.741229744348775
Te      4.582051942088832     10.581795688823329     15.547152052610356
Cd     18.328207768355316     13.227244611029160     16.482459488697550
Te     18.328207768355316     13.227244611029160     19.288381796959129
Cd     18.328207768355316     15.872693533234994      9.000000000000000
Te      0.000000000000002      0.000000000000005     11.805922308261581
Cd      6.873077913133242     14.549969072132077     12.741229744348775
Te      6.873077913133242     14.549969072132077     15.547152052610356
Cd      4.582051942088829     13.227244611029162     16.482459488697550
Te      4.582051942088829     13.227244611029162     19.288381796959129
